 vasp.6.3.2 27Jun22 (build Sep 20 2022 16:10:27) complex

 executed on             LinuxIFC date 2024.11.09  00:00:01

 INCAR:
   SYSTEM = INCAR-For-BAND
   ISTART = 0
   ICHARG = 11
   ENCUT = 500.0
   ISMEAR = 0
   SIGMA = 0.05
   LREAL = .FALSE.
   PREC = Accurate
   EDIFF = 1E-07
   NELM = 100
   ALGO = Normal
   LASPH = .TRUE
   NCORE = 9
   ISPIN = 1
   LORBIT = 11
   NEDOS = 100
   LMAXMIX = 4
   ISYM = 0
   IBRION = -1
   LWAVE = .FALSE.
   LCHARG = .TRUE.

 POTCAR:    PAW_PBE Zn 06Sep2000
 POTCAR:    PAW_PBE In_d 06Sep2000
 POTCAR:    PAW_PBE S 06Sep2000
 POTCAR:    PAW_PBE Zn 06Sep2000
   VRHFIN =Zn: d10 p2

   TITEL  = PAW_PBE Zn 06Sep2000
   POMASS =   65.390; ZVAL   =   12.000    mass and valenz
   ENMAX  =  276.723; ENMIN  =  207.542 eV

   TITEL  = PAW_PBE In_d 06Sep2000
   POMASS =  114.820; ZVAL   =   13.000    mass and valenz
   ENMAX  =  239.211; ENMIN  =  179.409 eV

   TITEL  = PAW_PBE S 06Sep2000
   POMASS =   32.066; ZVAL   =    6.000    mass and valenz
   ENMAX  =  258.689; ENMIN  =  194.016 eV

  PAW_PBE Zn 06Sep2000                  :
  PAW_PBE In_d 06Sep2000                :
  PAW_PBE S 06Sep2000                   :

 POSCAR: Primitive Cell
  positions in direct lattice
  velocities in cartesian coordinates
 exchange correlation table for  LEXCH =        8
   RHO(1)=    0.500       N(1)  =     2000
   RHO(2)=  100.500       N(2)  =     4000

 ion  position               nearest neighbor table
   1  0.392  0.392  0.392-   4 2.31   4 2.31   4 2.31   6 2.54
   2  0.162  0.162  0.162-   6 2.57   6 2.57   6 2.57   7 2.72   7 2.72   7 2.72
   3  0.937  0.937  0.937-   7 2.45   5 2.49   5 2.49   5 2.49
   4  0.044  0.044  0.044-   1 2.31   1 2.31   1 2.31
   5  0.300  0.300  0.300-   3 2.49   3 2.49   3 2.49
   6  0.461  0.461  0.461-   1 2.54   2 2.57   2 2.57   2 2.57
   7  0.870  0.870  0.870-   3 2.45   2 2.72   2 2.72   2 2.72

IMPORTANT INFORMATION: All symmetrisations will be switched off!
NOSYMM: (Re-)initialisation of all symmetry stuff for point group C_1.

                                     Primitive cell

  volume of cell :     160.5105

  direct lattice vectors                    reciprocal lattice vectors
     1.944688005  1.122766133 12.252165354     0.257110648  0.148442903  0.027206076
    -1.944688067  1.122766151 12.252165346    -0.257110647  0.148442900  0.027206075
    -0.000000014 -2.245532345 12.252165355    -0.000000001 -0.296885803  0.027206075

  length of vectors
    12.456242254 12.456242258 12.456242266     0.298129756  0.298129753  0.298129754

  position of ions in fractional coordinates (direct lattice)
     0.391750106  0.391750104  0.391750092
     0.161781926  0.161781931  0.161781971
     0.937134660  0.937134667  0.937134656
     0.043793497  0.043793498  0.043793499
     0.299593712  0.299593707  0.299593678
     0.460967032  0.460967029  0.460967008
     0.870379067  0.870379064  0.870379095

  ion indices of the primitive-cell ions
   primitive index   ion index
                 1           1
                 2           2
                 3           3
                 4           4
                 5           5
                 6           6
                 7           7

 KPOINTS: K-Path Generated by VASPKIT.

Interpolating k-points between supplied coordinates.

 Line segments in fractional coordinates (reciprocal lattice):
    0.000000  0.000000  0.000000  ...  0.500000  0.500000  0.500000
    0.500000  0.500000  0.500000  ...  0.827965  0.172035  0.500000
    0.500000 -0.172035  0.172035  ...  0.500000  0.000000  0.000000
    0.500000  0.000000  0.000000  ...  0.000000  0.000000  0.000000
    0.000000  0.000000  0.000000  ...  0.336018 -0.336018  0.000000
    0.663982  0.000000  0.336018  ...  0.500000  0.000000  0.500000
    0.500000  0.000000  0.500000  ...  0.000000  0.000000  0.000000

 Generated    20 points on each line segment, for a total of    140 k-points:

 Following reciprocal coordinates:
            Coordinates               Weight
  0.000000  0.000000  0.000000      0.007143
  0.026316  0.026316  0.026316      0.007143
  0.052632  0.052632  0.052632      0.007143
  0.078947  0.078947  0.078947      0.007143
  0.105263  0.105263  0.105263      0.007143
  0.131579  0.131579  0.131579      0.007143
  0.157895  0.157895  0.157895      0.007143
  0.184211  0.184211  0.184211      0.007143
  0.210526  0.210526  0.210526      0.007143
  0.236842  0.236842  0.236842      0.007143
  0.263158  0.263158  0.263158      0.007143
  0.289474  0.289474  0.289474      0.007143
  0.315789  0.315789  0.315789      0.007143
  0.342105  0.342105  0.342105      0.007143
  0.368421  0.368421  0.368421      0.007143
  0.394737  0.394737  0.394737      0.007143
  0.421053  0.421053  0.421053      0.007143
  0.447368  0.447368  0.447368      0.007143
  0.473684  0.473684  0.473684      0.007143
  0.500000  0.500000  0.500000      0.007143
  0.500000  0.500000  0.500000      0.007143
  0.517261  0.482739  0.500000      0.007143
  0.534523  0.465477  0.500000      0.007143
  0.551784  0.448216  0.500000      0.007143
  0.569045  0.430955  0.500000      0.007143
  0.586306  0.413694  0.500000      0.007143
  0.603568  0.396432  0.500000      0.007143
  0.620829  0.379171  0.500000      0.007143
  0.638090  0.361910  0.500000      0.007143
  0.655352  0.344648  0.500000      0.007143
  0.672613  0.327387  0.500000      0.007143
  0.689874  0.310126  0.500000      0.007143
  0.707136  0.292864  0.500000      0.007143
  0.724397  0.275603  0.500000      0.007143
  0.741658  0.258342  0.500000      0.007143
  0.758919  0.241081  0.500000      0.007143
  0.776181  0.223819  0.500000      0.007143
  0.793442  0.206558  0.500000      0.007143
  0.810703  0.189297  0.500000      0.007143
  0.827965  0.172035  0.500000      0.007143
  0.500000 -0.172035  0.172035      0.007143
  0.500000 -0.162981  0.162981      0.007143
  0.500000 -0.153926  0.153926      0.007143
  0.500000 -0.144872  0.144872      0.007143
  0.500000 -0.135817  0.135817      0.007143
  0.500000 -0.126763  0.126763      0.007143
  0.500000 -0.117708  0.117708      0.007143
  0.500000 -0.108654  0.108654      0.007143
  0.500000 -0.099599  0.099599      0.007143
  0.500000 -0.090545  0.090545      0.007143
  0.500000 -0.081490  0.081490      0.007143
  0.500000 -0.072436  0.072436      0.007143
  0.500000 -0.063381  0.063381      0.007143
  0.500000 -0.054327  0.054327      0.007143
  0.500000 -0.045272  0.045272      0.007143
  0.500000 -0.036218  0.036218      0.007143
  0.500000 -0.027163  0.027163      0.007143
  0.500000 -0.018109  0.018109      0.007143
  0.500000 -0.009054  0.009054      0.007143
  0.500000  0.000000 -0.000000      0.007143
[...]
  0.368421  0.000000  0.368421      0.007143
  0.342105  0.000000  0.342105      0.007143
  0.315789  0.000000  0.315789      0.007143
  0.289474  0.000000  0.289474      0.007143
  0.263158  0.000000  0.263158      0.007143
  0.236842  0.000000  0.236842      0.007143
  0.210526  0.000000  0.210526      0.007143
  0.184211  0.000000  0.184211      0.007143
  0.157895  0.000000  0.157895      0.007143
  0.131579  0.000000  0.131579      0.007143
  0.105263  0.000000  0.105263      0.007143
  0.078947  0.000000  0.078947      0.007143
  0.052632  0.000000  0.052632      0.007143
  0.026316  0.000000  0.026316      0.007143
  0.000000  0.000000  0.000000      0.007143

 Following cartesian coordinates:
            Coordinates               Weight
  0.000000  0.000000  0.000000      0.007143
 -0.000000  0.000000  0.002148      0.007143
 -0.000000  0.000000  0.004296      0.007143
 -0.000000  0.000000  0.006444      0.007143
 -0.000000  0.000000  0.008591      0.007143
 -0.000000  0.000000  0.010739      0.007143
 -0.000000  0.000000  0.012887      0.007143
 -0.000000  0.000000  0.015035      0.007143
 -0.000000  0.000000  0.017183      0.007143
 -0.000000  0.000000  0.019331      0.007143
 -0.000000  0.000000  0.021478      0.007143
 -0.000000  0.000000  0.023626      0.007143
 -0.000000  0.000000  0.025774      0.007143
 -0.000000  0.000000  0.027922      0.007143
 -0.000000  0.000000  0.030070      0.007143
 -0.000000  0.000000  0.032218      0.007143
 -0.000000  0.000000  0.034366      0.007143
 -0.000000  0.000000  0.036513      0.007143
 -0.000000  0.000000  0.038661      0.007143
 -0.000000  0.000000  0.040809      0.007143
 -0.000000  0.000000  0.040809      0.007143
  0.008876  0.000000  0.040809      0.007143
  0.017752  0.000000  0.040809      0.007143
  0.026628  0.000000  0.040809      0.007143
  0.035505  0.000000  0.040809      0.007143
  0.044381  0.000000  0.040809      0.007143
  0.053257  0.000000  0.040809      0.007143
  0.062133  0.000000  0.040809      0.007143
  0.071009  0.000000  0.040809      0.007143
  0.079885  0.000000  0.040809      0.007143
  0.088761  0.000000  0.040809      0.007143
  0.097637  0.000000  0.040809      0.007143
  0.106514  0.000000  0.040809      0.007143
  0.115390  0.000000  0.040809      0.007143
  0.124266  0.000000  0.040809      0.007143
  0.133142  0.000000  0.040809      0.007143
  0.142018  0.000000  0.040809      0.007143
  0.150894  0.000000  0.040809      0.007143
  0.159770  0.000000  0.040809      0.007143
  0.168646  0.000000  0.040809      0.007143
  0.172787 -0.002391  0.013603      0.007143
  0.170459  0.001641  0.013603      0.007143
  0.168131  0.005674  0.013603      0.007143
  0.165803  0.009706  0.013603      0.007143
  0.163475  0.013738  0.013603      0.007143
  0.161147  0.017770  0.013603      0.007143
  0.158819  0.021803  0.013603      0.007143
  0.156491  0.025835  0.013603      0.007143
  0.154163  0.029867  0.013603      0.007143
  0.151835  0.033899  0.013603      0.007143
  0.149507  0.037931  0.013603      0.007143
  0.147179  0.041964  0.013603      0.007143
  0.144851  0.045996  0.013603      0.007143
  0.142523  0.050028  0.013603      0.007143
  0.140195  0.054060  0.013603      0.007143
  0.137867  0.058093  0.013603      0.007143
  0.135539  0.062125  0.013603      0.007143
  0.133211  0.066157  0.013603      0.007143
  0.130883  0.070189  0.013603      0.007143
  0.128555  0.074221  0.013603      0.007143
[...]
  0.094725 -0.054689  0.020047      0.007143
  0.087959 -0.050783  0.018615      0.007143
  0.081193 -0.046877  0.017183      0.007143
  0.074427 -0.042970  0.015751      0.007143
  0.067661 -0.039064  0.014319      0.007143
  0.060895 -0.035158  0.012887      0.007143
  0.054129 -0.031251  0.011455      0.007143
  0.047362 -0.027345  0.010023      0.007143
  0.040596 -0.023438  0.008591      0.007143
  0.033830 -0.019532  0.007159      0.007143
  0.027064 -0.015626  0.005728      0.007143
  0.020298 -0.011719  0.004296      0.007143
  0.013532 -0.007813  0.002864      0.007143
  0.006766 -0.003906  0.001432      0.007143
  0.000000 -0.000000  0.000000      0.007143

 SYSTEM =  INCAR-For-BAND
 POSCAR =  Primitive Cell

 Startparameter for this run:
   NWRITE =      2    write-flag & timer
   PREC   = accura    normal or accurate (medium, high low for compatibility)
   ISTART =      0    job   : 0-new  1-cont  2-samecut
   ICHARG =     11    charge: 1-file 2-atom 10-const
   ISPIN  =      1    spin polarized calculation?
[...]
   0.34210526  0.00000000  0.34210526       0.007
   0.31578947  0.00000000  0.31578947       0.007
   0.28947368  0.00000000  0.28947368       0.007
   0.26315789  0.00000000  0.26315789       0.007
   0.23684211  0.00000000  0.23684211       0.007
   0.21052632  0.00000000  0.21052632       0.007
   0.18421053  0.00000000  0.18421053       0.007
   0.15789474  0.00000000  0.15789474       0.007
   0.13157895  0.00000000  0.13157895       0.007
   0.10526316  0.00000000  0.10526316       0.007
   0.07894737  0.00000000  0.07894737       0.007
   0.05263158  0.00000000  0.05263158       0.007
   0.02631579  0.00000000  0.02631579       0.007
   0.00000000  0.00000000  0.00000000       0.007

 position of ions in fractional coordinates (direct lattice)
   0.39175011  0.39175010  0.39175009
   0.16178193  0.16178193  0.16178197
   0.93713466  0.93713467  0.93713466
   0.04379350  0.04379350  0.04379350
   0.29959371  0.29959371  0.29959368
   0.46096703  0.46096703  0.46096701
   0.87037907  0.87037906  0.87037910

 position of ions in cartesian coordinates  (Angst):
  -0.00000003  0.00000000 14.39936103
  -0.00000002 -0.00000010  5.94653734
  -0.00000008 -0.00000004 34.44578647
  -0.00000001 -0.00000001  1.60969554
  -0.00000001  0.00000005 11.01201461
  -0.00000003  0.00000002 16.94353255
  -0.00000006 -0.00000012 31.99208506

 k-point   1 :   0.0000 0.0000 0.0000  plane waves:    4047
 k-point   2 :   0.0263 0.0263 0.0263  plane waves:    4041
 k-point   3 :   0.0526 0.0526 0.0526  plane waves:    4041
 k-point   4 :   0.0789 0.0789 0.0789  plane waves:    4035
 k-point   5 :   0.1053 0.1053 0.1053  plane waves:    4035
 k-point   6 :   0.1316 0.1316 0.1316  plane waves:    4047
 k-point   7 :   0.1579 0.1579 0.1579  plane waves:    4047
 k-point   8 :   0.1842 0.1842 0.1842  plane waves:    4053
 k-point   9 :   0.2105 0.2105 0.2105  plane waves:    4053
 k-point  10 :   0.2368 0.2368 0.2368  plane waves:    4056
 k-point  11 :   0.2632 0.2632 0.2632  plane waves:    4080
 k-point  12 :   0.2895 0.2895 0.2895  plane waves:    4077
 k-point  13 :   0.3158 0.3158 0.3158  plane waves:    4077
 k-point  14 :   0.3421 0.3421 0.3421  plane waves:    4082
 k-point  15 :   0.3684 0.3684 0.3684  plane waves:    4085
 k-point  16 :   0.3947 0.3947 0.3947  plane waves:    4085
 k-point  17 :   0.4211 0.4211 0.4211  plane waves:    4067
 k-point  18 :   0.4474 0.4474 0.4474  plane waves:    4055
 k-point  19 :   0.4737 0.4737 0.4737  plane waves:    4052
 k-point  20 :   0.5000 0.5000 0.5000  plane waves:    4040
 k-point  21 :   0.5000 0.5000 0.5000  plane waves:    4040
 k-point  22 :   0.5173 0.4827 0.5000  plane waves:    4046
 k-point  23 :   0.5345 0.4655 0.5000  plane waves:    4052
 k-point  24 :   0.5518 0.4482 0.5000  plane waves:    4048
 k-point  25 :   0.5690 0.4310 0.5000  plane waves:    4038
 k-point  26 :   0.5863 0.4137 0.5000  plane waves:    4048
 k-point  27 :   0.6036 0.3964 0.5000  plane waves:    4054
 k-point  28 :   0.6208 0.3792 0.5000  plane waves:    4060
 k-point  29 :   0.6381 0.3619 0.5000  plane waves:    4070
 k-point  30 :   0.6554 0.3446 0.5000  plane waves:    4074
 k-point  31 :   0.6726 0.3274 0.5000  plane waves:    4080
 k-point  32 :   0.6899 0.3101 0.5000  plane waves:    4086
 k-point  33 :   0.7071 0.2929 0.5000  plane waves:    4080
 k-point  34 :   0.7244 0.2756 0.5000  plane waves:    4078
 k-point  35 :   0.7417 0.2583 0.5000  plane waves:    4072
 k-point  36 :   0.7589 0.2411 0.5000  plane waves:    4072
 k-point  37 :   0.7762 0.2238 0.5000  plane waves:    4088
 k-point  38 :   0.7934 0.2066 0.5000  plane waves:    4098
 k-point  39 :   0.8107 0.1893 0.5000  plane waves:    4088
 k-point  40 :   0.8280 0.1720 0.5000  plane waves:    4096
 k-point  41 :   0.5000-0.1720 0.1720  plane waves:    4096
 k-point  42 :   0.5000-0.1630 0.1630  plane waves:    4098
 k-point  43 :   0.5000-0.1539 0.1539  plane waves:    4096
 k-point  44 :   0.5000-0.1449 0.1449  plane waves:    4094
 k-point  45 :   0.5000-0.1358 0.1358  plane waves:    4096
 k-point  46 :   0.5000-0.1268 0.1268  plane waves:    4096
 k-point  47 :   0.5000-0.1177 0.1177  plane waves:    4090
 k-point  48 :   0.5000-0.1087 0.1087  plane waves:    4088
 k-point  49 :   0.5000-0.0996 0.0996  plane waves:    4086
 k-point  50 :   0.5000-0.0905 0.0905  plane waves:    4088
 k-point  51 :   0.5000-0.0815 0.0815  plane waves:    4086
 k-point  52 :   0.5000-0.0724 0.0724  plane waves:    4086
 k-point  53 :   0.5000-0.0634 0.0634  plane waves:    4080
 k-point  54 :   0.5000-0.0543 0.0543  plane waves:    4082
 k-point  55 :   0.5000-0.0453 0.0453  plane waves:    4088
 k-point  56 :   0.5000-0.0362 0.0362  plane waves:    4090
 k-point  57 :   0.5000-0.0272 0.0272  plane waves:    4092
 k-point  58 :   0.5000-0.0181 0.0181  plane waves:    4092
 k-point  59 :   0.5000-0.0091 0.0091  plane waves:    4092
 k-point  60 :   0.5000 0.0000-0.0000  plane waves:    4094
[...]
 k-point 126 :   0.3684 0.0000 0.3684  plane waves:    4080
 k-point 127 :   0.3421 0.0000 0.3421  plane waves:    4081
 k-point 128 :   0.3158 0.0000 0.3158  plane waves:    4073
 k-point 129 :   0.2895 0.0000 0.2895  plane waves:    4069
 k-point 130 :   0.2632 0.0000 0.2632  plane waves:    4079
 k-point 131 :   0.2368 0.0000 0.2368  plane waves:    4081
 k-point 132 :   0.2105 0.0000 0.2105  plane waves:    4070
 k-point 133 :   0.1842 0.0000 0.1842  plane waves:    4062
 k-point 134 :   0.1579 0.0000 0.1579  plane waves:    4053
 k-point 135 :   0.1316 0.0000 0.1316  plane waves:    4046
 k-point 136 :   0.1053 0.0000 0.1053  plane waves:    4046
 k-point 137 :   0.0789 0.0000 0.0789  plane waves:    4044
 k-point 138 :   0.0526 0.0000 0.0526  plane waves:    4043
 k-point 139 :   0.0263 0.0000 0.0263  plane waves:    4039
 k-point 140 :   0.0000 0.0000 0.0000  plane waves:    4047

 maximum and minimum number of plane-waves per node :       465      442

 maximum number of plane-waves:      4109
 maximum index in each direction:
   IXMAX=   22   IYMAX=   22   IZMAX=   22
   IXMIN=  -23   IYMIN=  -23   IZMIN=  -23

 parallel 3D FFT for wavefunctions:
    minimum data exchange during FFTs selected (reduces bandwidth)
 parallel 3D FFT for charge:
    minimum data exchange during FFTs selected (reduces bandwidth)

 initial charge density was supplied:
 number of electron      62.0000004 magnetization
 keeping initial charge density in first step

 Maximum index for augmentation-charges         8482 (set IRDMAX)

 First call to EWALD:  gamma=   0.326
 Maximum number of real-space cells 4x 4x 4
 Maximum number of reciprocal cells 6x 6x 6

--------------------------------------- Iteration      1(   1)  ---------------------------------------

 eigenvalue-minimisations  : 11208
 total energy-change (2. order) : 0.5948052E+03  (-0.2772317E+04)
 number of electron      62.0000004 magnetization
 augmentation part       62.0000004 magnetization

 Free energy of the ion-electron system (eV)
  alpha Z        PSCENC =       144.36138454
  Ewald energy   TEWEN  =     -4033.89893700
  -Hartree energ DENC   =     -1931.19976897
  -exchange      EXHF   =         0.00000000
  -V(xc)+E(xc)   XCENC  =       190.73264886
  PAW double counting   =      8145.80785260    -8291.15952555
  entropy T*S    EENTRO =        -0.00240046
  eigenvalues    EBANDS =       360.39491836
  atomic energy  EATOM  =      6009.76902234
  Solvation  Ediel_sol  =         0.00000000
  free energy    TOTEN  =       594.80519471 eV

  energy without entropy =      594.80759517  energy(sigma->0) =      594.80639494

[...]

 eigenvalue-minimisations  : 11304
 total energy-change (2. order) :-0.5291520E+03  (-0.5078727E+03)
 number of electron      62.0000004 magnetization
 augmentation part       62.0000004 magnetization

[...]

--------------------------------------- Iteration      1(  10)  ---------------------------------------

 eigenvalue-minimisations  :  9096
 total energy-change (2. order) :-0.3016794E-08  (-0.2758192E-08)
 number of electron      62.0000004 magnetization
 augmentation part       62.0000004 magnetization

 Free energy of the ion-electron system (eV)
  alpha Z        PSCENC =       144.36138454
  Ewald energy   TEWEN  =     -4033.89893700
  -Hartree energ DENC   =     -1931.19976897
  -exchange      EXHF   =         0.00000000
  -V(xc)+E(xc)   XCENC  =       190.73264886
  PAW double counting   =      8145.80785260    -8291.15952555
  entropy T*S    EENTRO =        -0.00001078
  eigenvalues    EBANDS =      -257.33776384
  atomic energy  EATOM  =      6009.76902234
  Solvation  Ediel_sol  =         0.00000000
  free energy    TOTEN  =       -22.92509782 eV

  energy without entropy =      -22.92508704  energy(sigma->0) =      -22.92509243

 average (electrostatic) potential at core
  the test charge radii are     0.9521  1.0774  0.9698
  (the norm of the test charge is              1.0000)
       1 -33.7298       2 -97.0390       3 -97.5274       4 -85.6459       5 -87.7961
       6 -87.0218       7 -87.2350

 E-fermi :   4.5565     XC(G=0):  -9.3846     alpha+bet :-10.0174

 Fermi energy:         4.5564517093

 k-point     1 :       0.0000    0.0000    0.0000
  band No.  band energies     occupation
      1     -11.0953      2.00000
      2     -10.8992      2.00000
      3     -10.8992      2.00000
      4     -10.7244      2.00000
      5     -10.7244      2.00000
      6     -10.3671      2.00000
      7     -10.3671      2.00000
      8     -10.3549      2.00000
      9     -10.2242      2.00000
     10     -10.2242      2.00000
     11      -9.8013      2.00000
     12      -9.2027      2.00000
     13      -8.2634      2.00000
     14      -7.4694      2.00000
     15      -2.1013      2.00000
     16      -1.6430      2.00000
     17      -1.6430      2.00000
     18      -1.4126      2.00000
     19      -1.2004      2.00000
     20      -1.2004      2.00000
     21       0.3359      2.00000
     22       1.3383      2.00000
     23       1.9629      2.00000
     24       1.9629      2.00000
     25       2.6188      2.00000
     26       2.6188      2.00000
     27       2.8936      2.00000
     28       2.8936      2.00000
     29       3.8099      2.00000
     30       4.4199      1.99989
     31       4.4199      1.99989
     32       4.6709      0.00121
     33       6.1830      0.00000
     34       7.0930      0.00000
     35       7.7834      0.00000
     36       8.8351      0.00000
     37       8.8351      0.00000
     38       8.9199      0.00000
     39       9.5787      0.00000
     40       9.5787      0.00000

[...]

 k-point   140 :       0.0000    0.0000    0.0000
  band No.  band energies     occupation
      1     -11.0953      2.00000
      2     -10.8992      2.00000
      3     -10.8992      2.00000
      4     -10.7244      2.00000
      5     -10.7244      2.00000
      6     -10.3671      2.00000
      7     -10.3671      2.00000
      8     -10.3549      2.00000
      9     -10.2242      2.00000
     10     -10.2242      2.00000
     11      -9.8013      2.00000
     12      -9.2027      2.00000
     13      -8.2634      2.00000
     14      -7.4694      2.00000
     15      -2.1013      2.00000
     16      -1.6430      2.00000
     17      -1.6430      2.00000
     18      -1.4126      2.00000
     19      -1.2004      2.00000
     20      -1.2004      2.00000
     21       0.3359      2.00000
     22       1.3383      2.00000
     23       1.9629      2.00000
     24       1.9629      2.00000
     25       2.6188      2.00000
     26       2.6188      2.00000
     27       2.8936      2.00000
     28       2.8936      2.00000
     29       3.8099      2.00000
     30       4.4199      1.99989
     31       4.4199      1.99989
     32       4.6709      0.00121
     33       6.1830      0.00000
     34       7.0930      0.00000
     35       7.7834      0.00000
     36       8.8351      0.00000
     37       8.8351      0.00000
     38       8.9199      0.00000
     39       9.5787      0.00000
     40       9.5787      0.00000

 soft charge-density along one line, spin component           1
         0         1         2         3         4         5         6         7         8         9
 total charge-density along one line

------------------------ aborting loop because EDIFF is reached ----------------------------------------

 total charge

# of ion       s       p       d       tot
    1        0.478   0.438   9.814  10.730
    2        0.719   0.554   9.951  11.225
    3        0.779   0.652   9.949  11.380
    4        1.298   2.483   0.000   3.781
    5        1.355   2.438   0.000   3.794
    6        1.337   2.459   0.000   3.796
    7        1.336   2.476   0.000   3.811
tot          7.302  11.501  29.713  48.517

  FORCE on cell =-STRESS in cart. coord.  units (eV):
  Direction    XX          YY          ZZ          XY          YZ          ZX
  Alpha Z   144.36138   144.36138   144.36138
  Ewald   -1174.00427 -1174.00437 -1685.89483     0.00002     0.00001    -0.00000
  Hartree   766.64689   763.25201   403.01606    -0.16945     0.28080    -0.03936
  E(xc)    -289.37880  -289.59756  -289.44342    -0.00149    -0.00629     0.00180
  Local    -660.73163  -672.39200   215.23996     0.11763    -0.90745     0.17603
  n-local   330.91936   337.52658   324.51182     0.03394     0.29906    -0.05752
  augment   291.63089   289.50279   292.32497    -0.01498     0.02328     0.01175
  Kinetic   599.22523   612.37608   601.00634     0.05101     0.19226    -0.11456
  Fock        0.00000     0.00000     0.00000     0.00000     0.00000     0.00000
  Total       8.66906    11.02491     5.12228     0.01666    -0.11833    -0.02186
  in kB      86.53245   110.04804    51.12942     0.16632    -1.18117    -0.21819

 VOLUME and BASIS-vectors are now :
  energy-cutoff  :      500.00
  volume of cell :      160.51
      direct lattice vectors                 reciprocal lattice vectors
     1.944688005  1.122766133 12.252165354     0.257110648  0.148442903  0.027206076
    -1.944688067  1.122766151 12.252165346    -0.257110647  0.148442900  0.027206075
    -0.000000014 -2.245532345 12.252165355    -0.000000001 -0.296885803  0.027206075

  length of vectors
    12.456242254 12.456242258 12.456242266     0.298129756  0.298129753  0.298129754

 FORCES acting on ions
    electron-ion (+dipol)            ewald-force                    non-local-force                 convergence-correction
   -.637E-01 0.225E+01 0.103E+03   -.435E-05 -.680E-05 -.104E+03   0.685E-02 -.417E+00 0.212E+01   0.522E-01 -.164E+01 -.618E+00
   0.113E+00 -.414E+00 -.502E+02   0.302E-05 0.154E-04 0.496E+02   -.424E-01 0.146E+00 0.243E+01   -.675E-01 0.168E+00 -.158E+01
   0.184E+00 -.123E+01 -.629E+02   0.425E-05 0.847E-05 0.609E+02   -.673E-01 0.276E+00 0.142E+01   -.107E+00 0.619E+00 0.173E+00
   0.164E+00 -.160E+01 0.122E+03   0.480E-05 0.591E-05 -.127E+03   -.848E-01 0.824E+00 0.397E+01   -.455E-01 0.460E+00 0.136E+01
   -.180E+00 0.168E+01 -.113E+03   -.527E-05 -.587E-05 0.122E+03   0.116E+00 -.722E+00 -.795E+01   0.439E-01 -.524E+00 -.667E+00
   -.240E+00 0.194E+01 0.668E+02   -.321E-05 -.139E-04 -.716E+02   0.137E+00 -.108E+01 0.392E+01   0.602E-01 -.509E+00 0.495E+00
   0.684E-01 -.186E+01 -.714E+02   0.756E-06 -.313E-05 0.708E+02   -.269E-01 0.118E+01 0.195E+01   -.232E-01 0.438E+00 -.124E+01
   0.463E-01 0.781E+00 -.580E+01   0.215E-14 0.193E-13 -.284E-13   0.382E-01 0.206E+00 0.787E+01   -.873E-01 -.987E+00 -.208E+01

 POSITION                                       TOTAL-FORCE (eV/Angst)
     -0.00000      0.00000     14.39936        -0.004186      0.197000      0.155987
     -0.00000     -0.00000      5.94654         0.003971     -0.099449      0.216217
     -0.00000     -0.00000     34.44579         0.009506     -0.331968     -0.435656
     -0.00000     -0.00000      1.60970         0.034342     -0.312235     -0.347753
     -0.00000      0.00000     11.01201        -0.019805      0.438011      0.762746
     -0.00000      0.00000     16.94353        -0.042570      0.344637     -0.425839
     -0.00000     -0.00000     31.99209         0.018741     -0.235996      0.074298
    total drift:                               -0.002785     -0.000073     -0.008287

  FREE ENERGIE OF THE ION-ELECTRON SYSTEM (eV)
  free  energy   TOTEN  =       -22.92509782 eV

  energy  without entropy=      -22.92508704  energy(sigma->0) =      -22.92509243

 total charge

# of ion       s       p       d       tot
    1        0.478   0.438   9.814  10.730
    2        0.719   0.554   9.951  11.225
    3        0.779   0.652   9.949  11.380
    4        1.298   2.483   0.000   3.781
    5        1.355   2.438   0.000   3.794
    6        1.337   2.459   0.000   3.796
    7        1.336   2.476   0.000   3.811
tot          7.302  11.501  29.713  48.517