 vasp.6.3.2 27Jun22 (build Sep 20 2022 16:10:27) complex

 executed on             LinuxIFC date 2024.12.03  14:07:05

 INCAR:
   SYSTEM = PDOS-Calculation-from-SCF
   ISTART = 0
   ICHARG = 11
   ENCUT = 600.0
   ISMEAR = -5
   SIGMA = 0.05
   LREAL = .FALSE.
   PREC = Accurate
   EDIFF = 1E-07
   NELM = 100
   ALGO = Normal
   IBRION = -1
   NCORE = 9
   ISPIN = 1
   LORBIT = 11
   EMIN = -5
   EMAX = 5
   NEDOS = 5000
   LWAVE = .FALSE.
   LCHARG = .FALSE.
   LVTOT = .TRUE.
   ADDGRID = .TRUE.

 POTCAR:    PAW_PBE Zn 06Sep2000
 POTCAR:    PAW_PBE In_d 06Sep2000
 POTCAR:    PAW_PBE S 06Sep2000
 WARNING: For LVTOT=.TRUE., VASP.5.x writes the TOTAL local potential to the
     file LOCPOT. If you want only the Hartree contributions, use LVHAR=.TRUE.
     instead.

   TITEL  = PAW_PBE Zn 06Sep2000
   POMASS =   65.390; ZVAL   =   12.000    mass and valenz
   ENMAX  =  276.723; ENMIN  =  207.542 eV

   TITEL  = PAW_PBE In_d 06Sep2000
   POMASS =  114.820; ZVAL   =   13.000    mass and valenz
   ENMAX  =  239.211; ENMIN  =  179.409 eV

   TITEL  = PAW_PBE S 06Sep2000
   POMASS =   32.066; ZVAL   =    6.000    mass and valenz
   ENMAX  =  258.689; ENMIN  =  194.016 eV

  PAW_PBE Zn 06Sep2000                  :
  PAW_PBE In_d 06Sep2000                :
  PAW_PBE S 06Sep2000                   :

 POSCAR: Primitive Cell
  positions in direct lattice
  velocities in cartesian coordinates
 exchange correlation table for  LEXCH =        8
   RHO(1)=    0.500       N(1)  =     2000
   RHO(2)=  100.500       N(2)  =     4000

 ion  position               nearest neighbor table
   1  0.392  0.392  0.392-   4 2.31   4 2.31   4 2.31   6 2.55
   2  0.162  0.162  0.162-   6 2.57   6 2.57   6 2.57   7 2.73   7 2.73   7 2.73
   3  0.937  0.937  0.937-   7 2.45   5 2.49   5 2.49   5 2.49
   4  0.044  0.044  0.044-   1 2.31   1 2.31   1 2.31
   5  0.300  0.300  0.300-   3 2.49   3 2.49   3 2.49
   6  0.461  0.461  0.461-   1 2.55   2 2.57   2 2.57   2 2.57
   7  0.870  0.870  0.870-   3 2.45   2 2.73   2 2.73   2 2.73

  LATTYP: Found a trigonal (rhomboedric) cell.
 ALAT       =    12.4621174178
 COS(alpha) =     0.9511956077

  Lattice vectors:

 A1 = (   1.9467325718,   1.1239465334,  12.2577056531)
 A2 = (  -1.9467325669,   1.1239465193,  12.2577056202)
 A3 = (   0.0000000019,  -2.2478932129,  12.2577056303)

Analysis of symmetry for initial positions (statically):
 Subroutine PRICEL returns:
 Original cell was already a primitive cell.

 Routine SETGRP: Setting up the symmetry group for a
 trigonal (rhombohedral) supercell.

 Subroutine GETGRP returns: Found  6 space group operations
 (whereof  6 operations were pure point group operations)
 out of a pool of 12 trial point group operations.

The static configuration has the point symmetry C_3v.

Analysis of symmetry for dynamics (positions and initial velocities):
 Subroutine PRICEL returns:
 Original cell was already a primitive cell.

 Routine SETGRP: Setting up the symmetry group for a
 trigonal (rhombohedral) supercell.

 Subroutine GETGRP returns: Found  6 space group operations
 (whereof  6 operations were pure point group operations)
 out of a pool of 12 trial point group operations.

The dynamic configuration has the point symmetry C_3v.

 Subroutine INISYM returns: Found  6 space group operations
 (whereof  6 operations are pure point group operations),
 and found     1 'primitive' translations

                                     Primitive cell

  volume of cell :     160.9209

  direct lattice vectors                    reciprocal lattice vectors
     1.946732572  1.123946533 12.257705653     0.256840619  0.148287000  0.027193779
    -1.946732567  1.123946519 12.257705620    -0.256840621  0.148287000  0.027193779
     0.000000002 -2.247893213 12.257705630     0.000000001 -0.296574000  0.027193777

  length of vectors
    12.462117452 12.462117418 12.462117445     0.297818132  0.297818133  0.297818131

  position of ions in fractional coordinates (direct lattice)
     0.391739536  0.391739566  0.391739516
     0.161785311  0.161785303  0.161785315
     0.937129698  0.937129682  0.937129710
     0.043821776  0.043821811  0.043821756
     0.299532370  0.299532350  0.299532381
     0.461015730  0.461015704  0.461015733
     0.870375579  0.870375584  0.870375588

  ion indices of the primitive-cell ions
   primitive index   ion index
                 1           1
                 2           2
                 3           3
                 4           4
                 5           5
                 6           6
                 7           7

 KPOINTS: K-Spacing Value to Generate K-Mesh: 0.03

Automatic generation of k-mesh.
 Grid dimensions read from file:
 generate k-points for:   25   25   25

 Generating k-lattice:

  Cartesian coordinates                     Fractional coordinates (reciprocal lattice)
     0.010273625  0.005931480  0.001087751     0.040000000  0.000000000 -0.000000000
    -0.010273625  0.005931480  0.001087751    -0.000000000  0.040000000  0.000000000
     0.000000000 -0.011862960  0.001087751     0.000000000  0.000000000  0.040000000

  Length of vectors
     0.011912725  0.011912725  0.011912725

  Shift w.r.t. Gamma in fractional coordinates (k-lattice)
     0.000000000  0.000000000  0.000000000

 TETIRR: Found   7825 inequivalent tetrahedra from    93750

 Subroutine IBZKPT returns following result:

 Found   1469 irreducible k-points:

 Following reciprocal coordinates:
            Coordinates               Weight
  0.000000  0.000000  0.000000      1.000000
  0.040000  0.000000  0.000000      6.000000
  0.080000  0.000000 -0.000000      6.000000
  0.120000  0.000000  0.000000      6.000000
  0.160000  0.000000 -0.000000      6.000000
  0.200000  0.000000  0.000000      6.000000
  0.240000  0.000000 -0.000000      6.000000
  0.280000  0.000000  0.000000      6.000000
  0.320000  0.000000 -0.000000      6.000000
  0.360000  0.000000  0.000000      6.000000
  0.400000  0.000000  0.000000      6.000000
  0.440000  0.000000 -0.000000      6.000000
  0.480000  0.000000  0.000000      6.000000
  0.040000  0.040000 -0.000000      6.000000
  0.080000  0.040000  0.000000     12.000000
  0.120000  0.040000 -0.000000     12.000000
  0.160000  0.040000  0.000000     12.000000
  0.200000  0.040000  0.000000     12.000000
  0.240000  0.040000 -0.000000     12.000000
  0.280000  0.040000  0.000000     12.000000
  0.320000  0.040000 -0.000000     12.000000
  0.360000  0.040000  0.000000     12.000000
  0.400000  0.040000 -0.000000     12.000000
  0.440000  0.040000  0.000000     12.000000
  0.480000  0.040000 -0.000000     12.000000
 -0.480000  0.040000 -0.000000     12.000000
 -0.440000  0.040000  0.000000     12.000000
 -0.400000  0.040000 -0.000000     12.000000
 -0.360000  0.040000  0.000000     12.000000
 -0.320000  0.040000 -0.000000     12.000000
 -0.280000  0.040000  0.000000     12.000000
 -0.240000  0.040000 -0.000000     12.000000
 -0.200000  0.040000  0.000000     12.000000
 -0.160000  0.040000  0.000000     12.000000
 -0.120000  0.040000 -0.000000     12.000000
 -0.080000  0.040000  0.000000     12.000000
 -0.040000  0.040000 -0.000000      6.000000
  0.080000  0.080000  0.000000      6.000000
  0.120000  0.080000 -0.000000     12.000000
  0.160000  0.080000  0.000000     12.000000
  0.200000  0.080000 -0.000000     12.000000
  0.240000  0.080000  0.000000     12.000000
  0.280000  0.080000 -0.000000     12.000000
  0.320000  0.080000  0.000000     12.000000
  0.360000  0.080000  0.000000     12.000000
  0.400000  0.080000 -0.000000     12.000000
  0.440000  0.080000  0.000000     12.000000
  0.480000  0.080000 -0.000000     12.000000
 -0.480000  0.080000  0.000000     12.000000
 -0.440000  0.080000 -0.000000     12.000000
 -0.400000  0.080000  0.000000     12.000000
 -0.360000  0.080000 -0.000000     12.000000
 -0.320000  0.080000 -0.000000     12.000000
 -0.280000  0.080000  0.000000     12.000000
 -0.240000  0.080000 -0.000000     12.000000
 -0.200000  0.080000  0.000000     12.000000
 -0.160000  0.080000 -0.000000     12.000000
 -0.120000  0.080000  0.000000     12.000000
 -0.080000  0.080000 -0.000000      6.000000
  0.120000  0.120000  0.000000      6.000000
[...]
 -0.440000  0.480000  0.400000     12.000000
 -0.400000  0.480000  0.400000     12.000000
 -0.480000 -0.480000  0.400000      6.000000
 -0.440000 -0.480000  0.400000     12.000000
 -0.440000 -0.440000  0.400000      6.000000
  0.440000  0.440000  0.440000      2.000000
  0.480000  0.440000  0.440000      6.000000
 -0.480000  0.440000  0.440000      6.000000
 -0.440000  0.440000  0.440000      6.000000
  0.480000  0.480000  0.440000      6.000000
 -0.480000  0.480000  0.440000     12.000000
 -0.440000  0.480000  0.440000     12.000000
 -0.480000 -0.480000  0.440000      6.000000
  0.480000  0.480000  0.480000      2.000000
 -0.480000  0.480000  0.480000      6.000000

 Following cartesian coordinates:
            Coordinates               Weight
  0.000000  0.000000  0.000000      1.000000
  0.010274  0.005931  0.001088      6.000000
  0.020547  0.011863  0.002176      6.000000
  0.030821  0.017794  0.003263      6.000000
  0.041094  0.023726  0.004351      6.000000
  0.051368  0.029657  0.005439      6.000000
  0.061642  0.035589  0.006527      6.000000
  0.071915  0.041520  0.007614      6.000000
  0.082189  0.047452  0.008702      6.000000
  0.092463  0.053383  0.009790      6.000000
  0.102736  0.059315  0.010878      6.000000
  0.113010  0.065246  0.011965      6.000000
  0.123283  0.071178  0.013053      6.000000
 -0.000000  0.011863  0.002176      6.000000
  0.010274  0.017794  0.003263     12.000000
  0.020547  0.023726  0.004351     12.000000
  0.030821  0.029657  0.005439     12.000000
  0.041094  0.035589  0.006527     12.000000
  0.051368  0.041520  0.007614     12.000000
  0.061642  0.047452  0.008702     12.000000
  0.071915  0.053383  0.009790     12.000000
  0.082189  0.059315  0.010878     12.000000
  0.092463  0.065246  0.011965     12.000000
  0.102736  0.071178  0.013053     12.000000
  0.113010  0.077109  0.014141     12.000000
 -0.133557 -0.065246 -0.011965     12.000000
 -0.123283 -0.059315 -0.010878     12.000000
 -0.113010 -0.053383 -0.009790     12.000000
 -0.102736 -0.047452 -0.008702     12.000000
 -0.092463 -0.041520 -0.007614     12.000000
 -0.082189 -0.035589 -0.006527     12.000000
 -0.071915 -0.029657 -0.005439     12.000000
 -0.061642 -0.023726 -0.004351     12.000000
 -0.051368 -0.017794 -0.003263     12.000000
 -0.041094 -0.011863 -0.002176     12.000000
 -0.030821 -0.005931 -0.001088     12.000000
 -0.020547  0.000000  0.000000      6.000000
 -0.000000  0.023726  0.004351      6.000000
  0.010274  0.029657  0.005439     12.000000
  0.020547  0.035589  0.006527     12.000000
  0.030821  0.041520  0.007614     12.000000
  0.041094  0.047452  0.008702     12.000000
  0.051368  0.053383  0.009790     12.000000
  0.061642  0.059315  0.010878     12.000000
  0.071915  0.065246  0.011965     12.000000
  0.082189  0.071178  0.013053     12.000000
  0.092463  0.077109  0.014141     12.000000
  0.102736  0.083041  0.015229     12.000000
 -0.143831 -0.059315 -0.010878     12.000000
 -0.133557 -0.053383 -0.009790     12.000000
[...]
   0.48000000  0.48000000  0.48000000       0.000
  -0.48000000  0.48000000  0.48000000       0.000

 position of ions in fractional coordinates (direct lattice)
   0.39173954  0.39173957  0.39173952
   0.16178531  0.16178530  0.16178532
   0.93712970  0.93712968  0.93712971
   0.04382178  0.04382181  0.04382176
   0.29953237  0.29953235  0.29953238
   0.46101573  0.46101570  0.46101573
   0.87037558  0.87037558  0.87037559

 position of ions in cartesian coordinates  (Angst):
  -0.00000006  0.00000002 14.40548387
   0.00000002 -0.00000004  5.94935011
   0.00000004 -0.00000020 34.46117989
  -0.00000007  0.00000008  1.61146347
   0.00000004 -0.00000009 11.01473875
   0.00000005 -0.00000011 16.95298506
  -0.00000000 -0.00000016 32.00642309

 k-point   1 :   0.0000 0.0000 0.0000  plane waves:    5383
 k-point   2 :   0.0400 0.0000 0.0000  plane waves:    5374
 k-point   3 :   0.0800 0.0000-0.0000  plane waves:    5375
 k-point   4 :   0.1200 0.0000 0.0000  plane waves:    5376
 k-point   5 :   0.1600 0.0000-0.0000  plane waves:    5369
 k-point   6 :   0.2000 0.0000 0.0000  plane waves:    5358
 k-point   7 :   0.2400 0.0000-0.0000  plane waves:    5362
 k-point   8 :   0.2800 0.0000 0.0000  plane waves:    5354
 k-point   9 :   0.3200 0.0000-0.0000  plane waves:    5363
 k-point  10 :   0.3600 0.0000 0.0000  plane waves:    5382
 k-point  11 :   0.4000 0.0000 0.0000  plane waves:    5385
 k-point  12 :   0.4400 0.0000-0.0000  plane waves:    5374
 k-point  13 :   0.4800 0.0000 0.0000  plane waves:    5384
 k-point  14 :   0.0400 0.0400-0.0000  plane waves:    5383
 k-point  15 :   0.0800 0.0400 0.0000  plane waves:    5384
 k-point  16 :   0.1200 0.0400-0.0000  plane waves:    5377
 k-point  17 :   0.1600 0.0400 0.0000  plane waves:    5370
 k-point  18 :   0.2000 0.0400 0.0000  plane waves:    5362
 k-point  19 :   0.2400 0.0400-0.0000  plane waves:    5353
 k-point  20 :   0.2800 0.0400 0.0000  plane waves:    5352
 k-point  21 :   0.3200 0.0400-0.0000  plane waves:    5358
 k-point  22 :   0.3600 0.0400 0.0000  plane waves:    5373
 k-point  23 :   0.4000 0.0400-0.0000  plane waves:    5374
 k-point  24 :   0.4400 0.0400 0.0000  plane waves:    5379
 k-point  25 :   0.4800 0.0400-0.0000  plane waves:    5374
 k-point  26 :  -0.4800 0.0400-0.0000  plane waves:    5371
 k-point  27 :  -0.4400 0.0400 0.0000  plane waves:    5377
 k-point  28 :  -0.4000 0.0400-0.0000  plane waves:    5378
 k-point  29 :  -0.3600 0.0400 0.0000  plane waves:    5379
 k-point  30 :  -0.3200 0.0400-0.0000  plane waves:    5368
 k-point  31 :  -0.2800 0.0400 0.0000  plane waves:    5356
 k-point  32 :  -0.2400 0.0400-0.0000  plane waves:    5353
 k-point  33 :  -0.2000 0.0400 0.0000  plane waves:    5350
 k-point  34 :  -0.1600 0.0400 0.0000  plane waves:    5356
 k-point  35 :  -0.1200 0.0400-0.0000  plane waves:    5372
 k-point  36 :  -0.0800 0.0400 0.0000  plane waves:    5378
 k-point  37 :  -0.0400 0.0400-0.0000  plane waves:    5381
 k-point  38 :   0.0800 0.0800 0.0000  plane waves:    5380
 k-point  39 :   0.1200 0.0800-0.0000  plane waves:    5382
 k-point  40 :   0.1600 0.0800 0.0000  plane waves:    5375
 k-point  41 :   0.2000 0.0800-0.0000  plane waves:    5365
 k-point  42 :   0.2400 0.0800 0.0000  plane waves:    5357
 k-point  43 :   0.2800 0.0800-0.0000  plane waves:    5351
 k-point  44 :   0.3200 0.0800 0.0000  plane waves:    5353
 k-point  45 :   0.3600 0.0800 0.0000  plane waves:    5368
 k-point  46 :   0.4000 0.0800-0.0000  plane waves:    5370
 k-point  47 :   0.4400 0.0800 0.0000  plane waves:    5367
 k-point  48 :   0.4800 0.0800-0.0000  plane waves:    5373
 k-point  49 :  -0.4800 0.0800 0.0000  plane waves:    5377
 k-point  50 :  -0.4400 0.0800-0.0000  plane waves:    5380
 k-point  51 :  -0.4000 0.0800 0.0000  plane waves:    5373
 k-point  52 :  -0.3600 0.0800-0.0000  plane waves:    5373
 k-point  53 :  -0.3200 0.0800-0.0000  plane waves:    5374
 k-point  54 :  -0.2800 0.0800 0.0000  plane waves:    5364
 k-point  55 :  -0.2400 0.0800-0.0000  plane waves:    5351
 k-point  56 :  -0.2000 0.0800 0.0000  plane waves:    5345
 k-point  57 :  -0.1600 0.0800-0.0000  plane waves:    5350
 k-point  58 :  -0.1200 0.0800 0.0000  plane waves:    5363
 k-point  59 :  -0.0800 0.0800-0.0000  plane waves:    5375
 k-point  60 :   0.1200 0.1200 0.0000  plane waves:    5370
[...]
 k-point *** :  -0.4400 0.4800 0.4000  plane waves:    5384
 k-point *** :  -0.4000 0.4800 0.4000  plane waves:    5366
 k-point *** :  -0.4800-0.4800 0.4000  plane waves:    5392
 k-point *** :  -0.4400-0.4800 0.4000  plane waves:    5378
 k-point *** :  -0.4400-0.4400 0.4000  plane waves:    5377
 k-point *** :   0.4400 0.4400 0.4400  plane waves:    5380
 k-point *** :   0.4800 0.4400 0.4400  plane waves:    5386
 k-point *** :  -0.4800 0.4400 0.4400  plane waves:    5397
 k-point *** :  -0.4400 0.4400 0.4400  plane waves:    5390
 k-point *** :   0.4800 0.4800 0.4400  plane waves:    5388
 k-point *** :  -0.4800 0.4800 0.4400  plane waves:    5396
 k-point *** :  -0.4400 0.4800 0.4400  plane waves:    5390
 k-point *** :  -0.4800-0.4800 0.4400  plane waves:    5394
 k-point *** :   0.4800 0.4800 0.4800  plane waves:    5377
 k-point *** :  -0.4800 0.4800 0.4800  plane waves:    5388

 maximum and minimum number of plane-waves per node :       627      568

 maximum number of plane-waves:      5402
 maximum index in each direction:
   IXMAX=   25   IYMAX=   25   IZMAX=   24
   IXMIN=  -25   IYMIN=  -25   IZMIN=  -25

 parallel 3D FFT for wavefunctions:
    minimum data exchange during FFTs selected (reduces bandwidth)
 parallel 3D FFT for charge:
    minimum data exchange during FFTs selected (reduces bandwidth)

 initial charge density was supplied:
 number of electron      62.0000001 magnetization
 keeping initial charge density in first step

 Maximum index for augmentation-charges        68054 (set IRDMAX)

 First call to EWALD:  gamma=   0.326
 Maximum number of real-space cells 4x 4x 4
 Maximum number of reciprocal cells 6x 6x 6

--------------------------------------- Iteration      1(   1)  ---------------------------------------

 BZINTS: Fermi energy:   21.225769;   62.000000 electrons
         Band energy: 0.392760E+03;  BLOECHL correction:   -0.253309

 eigenvalue-minimisations  :117640
 total energy-change (2. order) : 0.6285046E+03  (-0.3062246E+04)
 number of electron      62.0000001 magnetization
 augmentation part       62.0000001 magnetization

 Free energy of the ion-electron system (eV)
  alpha Z        PSCENC =       143.99320331
  Ewald energy   TEWEN  =     -4030.16194519
  -Hartree energ DENC   =     -1933.28999385
  -exchange      EXHF   =         0.00000000
  -V(xc)+E(xc)   XCENC  =       190.70141507
  PAW double counting   =      8122.76781944    -8268.04542163
  entropy T*S    EENTRO =         0.00000000
  eigenvalues    EBANDS =       392.76019247
  atomic energy  EATOM  =      6009.77936416
  Solvation  Ediel_sol  =         0.00000000
  free energy    TOTEN  =       628.50463376 eV

  energy without entropy =      628.50463376  energy(sigma->0) =      628.50463376

[...]

 BZINTS: Fermi energy:    8.588843;   62.000000 electrons
         Band energy:-0.167208E+03;  BLOECHL correction:   -0.073608

 eigenvalue-minimisations  :117672
 total energy-change (2. order) :-0.5599680E+03  (-0.5380084E+03)
 number of electron      62.0000001 magnetization
 augmentation part       62.0000001 magnetization

[...]

 eigenvalue-minimisations  :171360
 total energy-change (2. order) :-0.1251874E-06  (-0.1251963E-06)
 number of electron      62.0000001 magnetization
 augmentation part       62.0000001 magnetization

[...]

--------------------------------------- Iteration      1(  10)  ---------------------------------------

[...]

 eigenvalue-minimisations  : 97488
 total energy-change (2. order) :-0.3416972E-08  (-0.3114656E-08)
 number of electron      62.0000001 magnetization
 augmentation part       62.0000001 magnetization

 Free energy of the ion-electron system (eV)
  alpha Z        PSCENC =       143.99320331
  Ewald energy   TEWEN  =     -4030.16194519
  -Hartree energ DENC   =     -1933.28999385
  -exchange      EXHF   =         0.00000000
  -V(xc)+E(xc)   XCENC  =       190.70141507
  PAW double counting   =      8122.76781944    -8268.04542163
  entropy T*S    EENTRO =         0.00000000
  eigenvalues    EBANDS =      -262.40889952
  atomic energy  EATOM  =      6009.77936416
  Solvation  Ediel_sol  =         0.00000000
  free energy    TOTEN  =       -26.66445822 eV

  energy without entropy =      -26.66445822  energy(sigma->0) =      -26.66445822

 average (electrostatic) potential at core
  the test charge radii are     0.9521  1.0774  0.9698
  (the norm of the test charge is              1.0000)
       1 -33.7548       2 -97.0642       3 -97.5514       4 -85.6706       5 -87.8181
       6 -87.0472       7 -87.2554

 E-fermi :   4.3887     XC(G=0):  -9.3724     alpha+bet : -9.9918

 Fermi energy:         4.3887194013

 k-point     1 :       0.0000    0.0000    0.0000
  band No.  band energies     occupation
      1     -11.1177      2.00000
      2     -10.9233      2.00000
      3     -10.9233      2.00000
      4     -10.7467      2.00000
      5     -10.7467      2.00000
      6     -10.3942      2.00000
      7     -10.3942      2.00000
      8     -10.3762      2.00000
      9     -10.2465      2.00000
     10     -10.2465      2.00000
     11      -9.8157      2.00000
     12      -9.2173      2.00000
     13      -8.2783      2.00000
     14      -7.4852      2.00000
     15      -2.1118      2.00000
     16      -1.6634      2.00000
     17      -1.6634      2.00000
     18      -1.4336      2.00000
     19      -1.2250      2.00000
     20      -1.2250      2.00000
     21       0.3193      2.00000
     22       1.3231      2.00000
     23       1.9339      2.00000
     24       1.9339      2.00000
     25       2.5940      2.00000
     26       2.5940      2.00000
     27       2.8665      2.00000
     28       2.8665      2.00000
     29       3.7879      2.00000
     30       4.3884      2.00000
     31       4.3884      2.00000
     32       4.6291      0.00000
     33       6.1406      0.00000
     34       7.0589      0.00000
     35       7.7451      0.00000
     36       8.8020      0.00000
     37       8.8020      0.00000
     38       8.8946      0.00000
     39       9.5458      0.00000
     40       9.5458      0.00000

[...]

 k-point  1469 :      -0.4800    0.4800    0.4800
  band No.  band energies     occupation
      1     -11.1196      2.00000
      2     -10.9278      2.00000
      3     -10.9218      2.00000
      4     -10.7483      2.00000
      5     -10.7467      2.00000
      6     -10.4063      2.00000
      7     -10.3930      2.00000
      8     -10.3684      2.00000
      9     -10.2479      2.00000
     10     -10.2463      2.00000
     11      -9.7883      2.00000
     12      -9.2300      2.00000
     13      -8.2185      2.00000
     14      -7.5084      2.00000
     15      -2.1493      2.00000
     16      -1.6634      2.00000
     17      -1.6600      2.00000
     18      -1.2292      2.00000
     19      -1.2250      2.00000
     20      -1.1888      2.00000
     21      -0.2051      2.00000
     22       1.8160      2.00000
     23       1.9116      2.00000
     24       2.0350      2.00000
     25       2.4318      2.00000
     26       2.5540      2.00000
     27       2.8101      2.00000
     28       2.8829      2.00000
     29       3.1455      2.00000
     30       4.2907      2.00000
     31       4.3657      2.00002
     32       5.3526      0.00000
     33       5.9654      0.00000
     34       7.2134      0.00000
     35       7.6245      0.00000
     36       8.6670      0.00000
     37       8.8505      0.00000
     38       9.0193      0.00000
     39       9.5168      0.00000
     40       9.5413      0.00000

 soft charge-density along one line, spin component           1
         0         1         2         3         4         5         6         7         8         9
 total charge-density along one line

------------------------ aborting loop because EDIFF is reached ----------------------------------------

 total charge

# of ion       s       p       d       tot
    1        0.525   0.448   9.795  10.768
    2        0.733   0.604   9.948  11.285
    3        0.789   0.697   9.936  11.421
    4        1.320   2.412   0.000   3.731
    5        1.362   2.341   0.000   3.703
    6        1.347   2.374   0.000   3.720
    7        1.344   2.381   0.000   3.725
tot          7.420  11.255  29.678  48.354

  FORCE on cell =-STRESS in cart. coord.  units (eV):
  Direction    XX          YY          ZZ          XY          YZ          ZX
  Alpha Z   143.99320   143.99320   143.99320
  Ewald   -1172.42113 -1172.42112 -1685.32424     0.00001    -0.00001     0.00002
  Hartree   767.79379   767.79376   397.71118    -0.00002    -0.00001     0.00001
  E(xc)    -289.38941  -289.38941  -289.56201     0.00000    -0.00000     0.00000
  Local    -664.88438  -664.88434   212.25920     0.00001     0.00002    -0.00003
  n-local   335.08242   332.37292   330.93406    -3.27341    -0.20848     0.27872
  augment   290.78207   290.78207   290.88303     0.00000     0.00000     0.00000
  Kinetic   594.94605   589.48754   600.88894    -6.84235    -0.28831     0.16935
  Fock        0.00000     0.00000     0.00000     0.00000     0.00000     0.00000
  Total       1.81862     1.81862     1.78336     0.00000    -0.00000     0.00000
  in kB      18.10672    18.10672    17.75569     0.00000    -0.00000     0.00000

 VOLUME and BASIS-vectors are now :
  energy-cutoff  :      600.00
  volume of cell :      160.92
      direct lattice vectors                 reciprocal lattice vectors
     1.946732572  1.123946533 12.257705653     0.256840619  0.148287000  0.027193779
    -1.946732567  1.123946519 12.257705620    -0.256840621  0.148287000  0.027193779
     0.000000002 -2.247893213 12.257705630     0.000000001 -0.296574000  0.027193777

  length of vectors
    12.462117452 12.462117418 12.462117445     0.297818132  0.297818133  0.297818131

 FORCES acting on ions
    electron-ion (+dipol)            ewald-force                    non-local-force                 convergence-correction
   0.258E-05 -.428E-05 0.102E+03   -.374E-05 0.229E-05 -.105E+03   0.476E-09 -.113E-07 0.260E+01   -.197E-03 0.271E-03 -.150E+00
   -.217E-05 0.356E-05 -.518E+02   0.944E-06 -.875E-06 0.490E+02   0.507E-09 -.120E-07 0.276E+01   0.279E-04 -.366E-04 0.110E+00
   -.904E-05 0.137E-04 -.624E+02   0.266E-05 -.252E-06 0.616E+02   0.153E-09 -.365E-08 0.837E+00   0.617E-04 -.993E-04 -.532E-01
   0.358E-04 -.467E-04 0.124E+03   0.258E-05 0.122E-05 -.127E+03   0.592E-09 -.141E-07 0.323E+01   -.887E-05 0.944E-05 -.338E-01
   -.208E-04 0.275E-04 -.116E+03   -.218E-05 -.161E-05 0.122E+03   -.120E-08 0.285E-07 -.655E+01   0.695E-05 -.668E-05 0.150E-01
   -.315E-04 0.224E-04 0.697E+02   0.204E-05 -.264E-05 -.718E+02   0.386E-09 -.917E-08 0.211E+01   0.988E-05 -.491E-05 0.125E-01
   0.708E-05 0.774E-05 -.735E+02   -.231E-05 0.186E-05 0.704E+02   0.546E-09 -.130E-07 0.298E+01   -.215E-05 -.430E-05 0.116E-01
   -.181E-04 0.239E-04 -.788E+01   -.338E-14 -.364E-14 0.284E-13   0.146E-08 -.347E-07 0.796E+01   -.101E-03 0.128E-03 -.881E-01

 POSITION                                       TOTAL-FORCE (eV/Angst)
     -0.00000      0.00000     14.40548        -0.000000      0.000000     -0.042454
      0.00000     -0.00000      5.94935         0.000000     -0.000000      0.101656
      0.00000     -0.00000     34.46118        -0.000000      0.000000     -0.027348
     -0.00000      0.00000      1.61146        -0.000000      0.000000     -0.027448
      0.00000     -0.00000     11.01474         0.000000     -0.000000      0.040497
      0.00000     -0.00000     16.95299         0.000000     -0.000000      0.018797
     -0.00000     -0.00000     32.00642        -0.000000      0.000000     -0.063700
    total drift:                               -0.000119      0.000152     -0.000932

  FREE ENERGIE OF THE ION-ELECTRON SYSTEM (eV)
  free  energy   TOTEN  =       -26.66445822 eV

  energy  without entropy=      -26.66445822  energy(sigma->0) =      -26.66445822

 total charge

# of ion       s       p       d       tot
    1        0.525   0.448   9.795  10.768
    2        0.733   0.604   9.948  11.285
    3        0.789   0.697   9.936  11.421
    4        1.320   2.412   0.000   3.731
    5        1.362   2.341   0.000   3.703
    6        1.347   2.374   0.000   3.720
    7        1.344   2.381   0.000   3.725
tot          7.420  11.255  29.678  48.354

 BZINTS: Fermi energy:    4.388719;   62.000000 electrons
         Band energy:-0.262409E+03;  BLOECHL correction:   -0.000000