 vasp.6.3.2 27Jun22 (build Sep 20 2022 16:10:27) complex

 executed on             LinuxIFC date 2024.10.27  17:57:56

 INCAR:
   SYSTEM = PDOS-Calculation-from-SCF
   ISTART = 0
   ICHARG = 11
   ENCUT = 360.0
   ISMEAR = -5
   SIGMA = 0.05
   LREAL = .FALSE.
   PREC = Accurate
   EDIFF = 1E-07
   NELM = 100
   ALGO = Normal
   NCORE = 9
   ISPIN = 1
   LORBIT = 11
   EMIN = -10
   EMAX = 10
   NEDOS = 5000
   LWAVE = .FALSE.
   LCHARG = .TRUE.
   LVTOT = .TRUE.
   ADDGRID = .TRUE.

 POTCAR:    PAW_PBE Zn 06Sep2000
 POTCAR:    PAW_PBE In_d 06Sep2000
 POTCAR:    PAW_PBE S 06Sep2000
 WARNING: For LVTOT=.TRUE., VASP.5.x writes the TOTAL local potential to the
     file LOCPOT. If you want only the Hartree contributions, use LVHAR=.TRUE.
     instead.

   TITEL  = PAW_PBE Zn 06Sep2000
   POMASS =   65.390; ZVAL   =   12.000    mass and valenz
   ENMAX  =  276.723; ENMIN  =  207.542 eV

   TITEL  = PAW_PBE In_d 06Sep2000
   POMASS =  114.820; ZVAL   =   13.000    mass and valenz
   ENMAX  =  239.211; ENMIN  =  179.409 eV

   TITEL  = PAW_PBE S 06Sep2000
   POMASS =   32.066; ZVAL   =    6.000    mass and valenz
   ENMAX  =  258.689; ENMIN  =  194.016 eV

  PAW_PBE Zn 06Sep2000                  :
  PAW_PBE In_d 06Sep2000                :
  PAW_PBE S 06Sep2000                   :

 POSCAR: Zn In2 S4
  positions in direct lattice
  velocities in cartesian coordinates
 exchange correlation table for  LEXCH =        8
   RHO(1)=    0.500       N(1)  =     2000
   RHO(2)=  100.500       N(2)  =     4000

 ion  position               nearest neighbor table
   1  1.000  1.000  1.000-  52 2.36  30 2.36  46 2.36  42 2.36
   2  1.000  0.500  0.500-  43 2.36  29 2.36  34 2.36  53 2.36
   3  0.500  0.500  1.000-  31 2.36  45 2.36  35 2.36  56 2.36
   4  0.500  1.000  0.500-  33 2.36  44 2.36  32 2.36  51 2.36
   5  0.750  0.250  0.750-  26 2.36  38 2.36  48 2.36  49 2.36
   6  0.250  0.250  0.250-  47 2.36  54 2.36  41 2.36  25 2.36
   7  0.250  0.750  0.750-  36 2.36  39 2.36  27 2.36  50 2.36
   8  0.750  0.750  0.250-  37 2.36  28 2.36  55 2.36  40 2.36
   9  0.625  0.625  0.625-  45 2.61  44 2.61  53 2.61  48 2.61  50 2.61  40 2.61  18 3.74  19 3.74
                            23 3.74  22 3.74  17 3.74  20 3.74
  10  0.375  0.875  0.125-  46 2.61  51 2.61  35 2.61  54 2.61  37 2.61  39 2.61  15 3.74  21 3.74
                            20 3.74  16 3.74  23 3.74  14 3.74
  11  0.875  0.125  0.375-  52 2.61  33 2.61  43 2.61  47 2.61  38 2.61  55 2.61  13 3.74  16 3.74
                            22 3.74  15 3.74  19 3.74  24 3.74
  12  0.125  0.375  0.875-  42 2.61  56 2.61  34 2.61  41 2.61  36 2.61  49 2.61  14 3.74  24 3.74
                            17 3.74  13 3.74  18 3.74  21 3.74
  13  0.875  0.375  0.125-  52 2.61  31 2.61  43 2.61  41 2.61  49 2.61  28 2.61  11 3.74  16 3.74
                            22 3.74  12 3.74  18 3.74  21 3.74
  14  0.375  0.125  0.875-  56 2.61  32 2.61  42 2.61  54 2.61  26 2.61  39 2.61  12 3.74  24 3.74
                            17 3.74  16 3.74  23 3.74  10 3.74
  15  0.125  0.875  0.375-  51 2.61  46 2.61  29 2.61  47 2.61  27 2.61  55 2.61  10 3.74  21 3.74
                            20 3.74  11 3.74  19 3.74  24 3.74
  16  0.625  0.125  0.125-  31 2.61  52 2.61  33 2.61  54 2.61  26 2.61  37 2.61  22 3.74  13 3.74
                            11 3.74  14 3.74  23 3.74  10 3.74
  17  0.375  0.375  0.625-  32 2.61  34 2.61  56 2.61  50 2.61  25 2.61  48 2.61  24 3.74  14 3.74
                            12 3.74  22 3.74   9 3.74  20 3.74
  18  0.875  0.625  0.875-  53 2.61  45 2.61  30 2.61  49 2.61  36 2.61  28 2.61  19 3.74   9 3.74
                            23 3.74  13 3.74  12 3.74  21 3.74
  19  0.875  0.875  0.625-  53 2.61  30 2.61  44 2.61  38 2.61  55 2.61  27 2.61  18 3.74  23 3.74
                             9 3.74  11 3.74  24 3.74  15 3.74
  20  0.375  0.625  0.375-  35 2.61  51 2.61  29 2.61  25 2.61  40 2.61  50 2.61  21 3.74  15 3.74
                            10 3.74  22 3.74   9 3.74  17 3.74
  21  0.125  0.625  0.125-  35 2.61  46 2.61  29 2.61  41 2.61  28 2.61  36 2.61  20 3.74  15 3.74
                            10 3.74  13 3.74  12 3.74  18 3.74
  22  0.625  0.375  0.375-  31 2.61  33 2.61  43 2.61  25 2.61  40 2.61  48 2.61  16 3.74  11 3.74
                            13 3.74  20 3.74   9 3.74  17 3.74
  23  0.625  0.875  0.875-  45 2.61  44 2.61  30 2.61  26 2.61  39 2.61  37 2.61  19 3.74  18 3.74
                             9 3.74  16 3.74  14 3.74  10 3.74
  24  0.125  0.125  0.625-  42 2.61  32 2.61  34 2.61  38 2.61  47 2.61  27 2.61  17 3.74  12 3.74
                            14 3.74  19 3.74  11 3.74  15 3.74
  25  0.379  0.379  0.379-   6 2.36  22 2.61  20 2.61  17 2.61
  26  0.621  0.121  0.879-   5 2.36  23 2.61  14 2.61  16 2.61
  27  0.121  0.879  0.621-   7 2.36  15 2.61  19 2.61  24 2.61
  28  0.879  0.621  0.121-   8 2.36  18 2.61  13 2.61  21 2.61
  29  0.129  0.629  0.371-   2 2.36  15 2.61  20 2.61  21 2.61
  30  0.871  0.871  0.871-   1 2.36  19 2.61  23 2.61  18 2.61
  31  0.629  0.371  0.129-   3 2.36  22 2.61  16 2.61  13 2.61
  32  0.371  0.129  0.629-   4 2.36  17 2.61  24 2.61  14 2.61
  33  0.629  0.129  0.371-   4 2.36  11 2.61  22 2.61  16 2.61
  34  0.129  0.371  0.629-   2 2.36  12 2.61  17 2.61  24 2.61
  35  0.371  0.629  0.129-   3 2.36  20 2.61  21 2.61  10 2.61
  36  0.121  0.621  0.879-   7 2.36  12 2.61  18 2.61  21 2.61
  37  0.621  0.879  0.121-   8 2.36  23 2.61  10 2.61  16 2.61
  38  0.879  0.121  0.621-   5 2.36  19 2.61  11 2.61  24 2.61
  39  0.379  0.879  0.879-   7 2.36  23 2.61  14 2.61  10 2.61
  40  0.621  0.621  0.379-   8 2.36  20 2.61  22 2.61   9 2.61
  41  0.121  0.379  0.121-   6 2.36  12 2.61  13 2.61  21 2.61
  42  0.129  0.129  0.871-   1 2.36  12 2.61  24 2.61  14 2.61
  43  0.871  0.371  0.371-   2 2.36  11 2.61  22 2.61  13 2.61
  44  0.629  0.871  0.629-   4 2.36  23 2.61  19 2.61   9 2.61
  45  0.629  0.629  0.871-   3 2.36  23 2.61  18 2.61   9 2.61
  46  0.129  0.871  0.129-   1 2.36  15 2.61  10 2.61  21 2.61
  47  0.121  0.121  0.379-   6 2.36  15 2.61  11 2.61  24 2.61
  48  0.621  0.379  0.621-   5 2.36   9 2.61  17 2.61  22 2.61
  49  0.879  0.379  0.879-   5 2.36  18 2.61  12 2.61  13 2.61
  50  0.379  0.621  0.621-   7 2.36  17 2.61   9 2.61  20 2.61
  51  0.371  0.871  0.371-   4 2.36  15 2.61  10 2.61  20 2.61
  52  0.871  0.129  0.129-   1 2.36  13 2.61  11 2.61  16 2.61
  53  0.871  0.629  0.629-   2 2.36  19 2.61  18 2.61   9 2.61
  54  0.379  0.121  0.121-   6 2.36  14 2.61  10 2.61  16 2.61
  55  0.879  0.879  0.379-   8 2.36  15 2.61  19 2.61  11 2.61
  56  0.371  0.371  0.871-   3 2.36  12 2.61  14 2.61  17 2.61

  LATTYP: Found a simple cubic cell.
 ALAT       =    10.5900001526

  Lattice vectors:

 A1 = (  10.5900001526,   0.0000000000,   0.0000000000)
 A2 = (   0.0000000000,  10.5900001526,   0.0000000000)
 A3 = (   0.0000000000,   0.0000000000,  10.5900001526)

Analysis of symmetry for initial positions (statically):
 Subroutine PRICEL returns following result:

  LATTYP: Found a face centered cubic cell.
 ALAT       =    10.5900002898

[...]

   4 primitive cells build up your supercell.

 Routine SETGRP: Setting up the symmetry group for a
 simple cubic supercell.

 Subroutine GETGRP returns: Found 24 space group operations
 (whereof 24 operations were pure point group operations)
 out of a pool of 48 trial point group operations.

The static configuration has the point symmetry T_d .

Analysis of symmetry for dynamics (positions and initial velocities):
 Subroutine PRICEL returns following result:

  LATTYP: Found a face centered cubic cell.
 ALAT       =    10.5900002898

  Lattice vectors:

 A1 = (   5.2950001475,  -5.2950001422,  -0.0000000065)
 A2 = (   5.2950001547,   0.0000000000,   5.2950001451)
 A3 = (  -0.0000000072,  -5.2950001422,   5.2950000011)

   4 primitive cells build up your supercell.

 Routine SETGRP: Setting up the symmetry group for a
 simple cubic supercell.

 Subroutine GETGRP returns: Found 24 space group operations
 (whereof 24 operations were pure point group operations)
 out of a pool of 48 trial point group operations.

The dynamic configuration has the point symmetry T_d .

 Subroutine INISYM returns: Found 24 space group operations
 (whereof 24 operations are pure point group operations),
 and found     4 'primitive' translations

                                     Primitive cell

  volume of cell :     296.9121

  direct lattice vectors                    reciprocal lattice vectors
     5.295000148 -5.295000142 -0.000000006     0.094428705 -0.094428703 -0.094428705
     5.295000155  0.000000000  5.295000145     0.094428702  0.094428702  0.094428705
    -0.000000007 -5.295000142  5.295000001    -0.094428705 -0.094428705  0.094428705

  length of vectors
     7.488261018  7.488261025  7.488260914     0.163555313  0.163555312  0.163555315

  position of ions in fractional coordinates (direct lattice)
     0.000000026  0.999999934  0.000000004
     0.750000004  0.749999972  0.750000002
     0.374991175  0.875026504  0.374991143
     0.374991186  0.374991138  0.875026508
     0.374991177  0.374991145  0.374991144
     0.875026519  0.374991159  0.374991176
     0.621428020  0.135715994  0.621427967
     0.621428005  0.621427984  0.135716016
     0.621428012  0.621427970  0.621427994
     0.135716019  0.621427980  0.621427995
     0.128576924  0.128576893  0.614269247
     0.128576939  0.614269190  0.128576919
     0.128576944  0.128576877  0.128576923
     0.614269256  0.128576871  0.128576925

  ion indices of the primitive-cell ions
   primitive index   ion index
                 1           1
                 2           5
                 3          24
                 4          13
                 5          11
                 6          12
                 7          55
                 8          47
                 9          41
                10          54
                11          42
                12          30
                13          46
                14          52

 KPOINTS: K-Spacing Value

Automatic generation of k-mesh.
 Grid dimensions read from file:
 generate k-points for:   15   15   15

 Generating k-lattice:

  Cartesian coordinates                     Fractional coordinates (reciprocal lattice)
     0.006295247  0.000000000  0.000000000     0.066666667  0.000000000  0.000000000
     0.000000000  0.006295247  0.000000000     0.000000000  0.066666667  0.000000000
     0.000000000  0.000000000  0.006295247     0.000000000  0.000000000  0.066666667

  Length of vectors
     0.006295247  0.006295247  0.006295247

  Shift w.r.t. Gamma in fractional coordinates (k-lattice)
     0.000000000  0.000000000  0.000000000

 TETIRR: Found   1667 inequivalent tetrahedra from    20250

 Subroutine IBZKPT returns following result:

 Found    120 irreducible k-points:

 Following reciprocal coordinates:
            Coordinates               Weight
  0.000000  0.000000  0.000000      1.000000
  0.066667  0.000000  0.000000      6.000000
  0.133333  0.000000  0.000000      6.000000
  0.200000  0.000000  0.000000      6.000000
  0.266667  0.000000  0.000000      6.000000
[...]
     0.000000000  0.000000000 10.590000153     0.000000000  0.000000000  0.094428705

  length of vectors
    10.590000153 10.590000153 10.590000153     0.094428705  0.094428705  0.094428705

 FORCES acting on ions
    electron-ion (+dipol)            ewald-force                    non-local-force                 convergence-correction
   0.173E-04 0.171E-04 0.158E-04   -.166E-04 -.350E-04 -.261E-04   0.170E-17 0.455E-18 -.601E-18   -.120E-03 -.694E-04 -.105E-03
   0.168E-04 -.174E-04 -.167E-04   -.271E-04 0.144E-04 0.103E-04   -.797E-18 0.938E-18 0.117E-18   -.854E-04 0.109E-03 0.120E-03
   -.174E-04 -.187E-04 0.145E-04   0.187E-04 0.203E-04 -.268E-04   -.164E-17 0.267E-18 -.710E-18   0.104E-03 0.905E-04 -.117E-03
   -.182E-04 0.156E-04 -.180E-04   0.137E-04 -.331E-04 0.159E-04   -.179E-17 -.197E-17 -.598E-18   0.117E-03 -.746E-04 0.906E-04
   -.774E-06 0.221E-05 0.150E-05   0.390E-05 0.781E-05 0.149E-06   0.602E-18 -.191E-17 0.494E-19   -.233E-04 -.122E-04 0.163E-04
   0.137E-05 0.231E-05 0.513E-06   -.250E-05 0.163E-04 0.986E-05   -.107E-17 -.493E-17 -.394E-18   0.124E-04 -.309E-04 -.580E-05
   0.112E-05 -.150E-07 0.261E-06   0.101E-05 0.980E-05 0.907E-05   -.131E-18 -.315E-17 0.522E-18   0.134E-04 -.872E-05 -.315E-05
   -.378E-06 0.154E-05 0.185E-05   0.820E-05 0.568E-05 0.886E-05   -.949E-18 -.151E-17 -.120E-17   -.224E-04 -.495E-05 -.855E-06
   0.997E-01 0.997E-01 0.997E-01   -.937E-01 -.937E-01 -.937E-01   0.257E-02 0.257E-02 0.257E-02   -.106E-01 -.106E-01 -.106E-01
   -.997E-01 -.997E-01 0.997E-01   0.938E-01 0.938E-01 -.938E-01   -.257E-02 -.257E-02 0.257E-02   0.101E-01 0.105E-01 -.101E-01
   -.997E-01 0.997E-01 -.997E-01   0.938E-01 -.938E-01 0.938E-01   -.257E-02 0.257E-02 -.257E-02   0.105E-01 -.102E-01 0.101E-01
   0.997E-01 -.997E-01 -.997E-01   -.938E-01 0.938E-01 0.938E-01   0.257E-02 -.257E-02 -.257E-02   -.101E-01 0.101E-01 0.105E-01
   -.997E-01 -.997E-01 0.997E-01   0.938E-01 0.938E-01 -.938E-01   -.257E-02 -.257E-02 0.257E-02   0.106E-01 0.101E-01 -.102E-01
   -.997E-01 0.997E-01 -.997E-01   0.938E-01 -.938E-01 0.938E-01   -.257E-02 0.257E-02 -.257E-02   0.102E-01 -.101E-01 0.105E-01
   0.997E-01 -.997E-01 -.997E-01   -.938E-01 0.938E-01 0.938E-01   0.257E-02 -.257E-02 -.257E-02   -.101E-01 0.105E-01 0.101E-01
   0.997E-01 0.997E-01 0.997E-01   -.938E-01 -.938E-01 -.938E-01   0.257E-02 0.257E-02 0.257E-02   -.105E-01 -.101E-01 -.102E-01
   -.997E-01 -.997E-01 0.997E-01   0.938E-01 0.938E-01 -.938E-01   -.257E-02 -.257E-02 0.257E-02   0.102E-01 0.102E-01 -.105E-01
   -.997E-01 0.997E-01 -.997E-01   0.937E-01 -.937E-01 0.937E-01   -.257E-02 0.257E-02 -.257E-02   0.105E-01 -.106E-01 0.105E-01
   -.997E-01 -.997E-01 0.997E-01   0.937E-01 0.937E-01 -.937E-01   -.257E-02 -.257E-02 0.257E-02   0.106E-01 0.105E-01 -.105E-01
   -.997E-01 0.997E-01 -.997E-01   0.938E-01 -.938E-01 0.938E-01   -.257E-02 0.257E-02 -.257E-02   0.102E-01 -.106E-01 0.102E-01
   0.997E-01 0.997E-01 0.997E-01   -.938E-01 -.938E-01 -.938E-01   0.257E-02 0.257E-02 0.257E-02   -.101E-01 -.105E-01 -.101E-01
   0.997E-01 -.997E-01 -.997E-01   -.937E-01 0.938E-01 0.938E-01   0.257E-02 -.257E-02 -.257E-02   -.106E-01 0.102E-01 0.102E-01
   0.997E-01 -.997E-01 -.997E-01   -.937E-01 0.937E-01 0.937E-01   0.257E-02 -.257E-02 -.257E-02   -.105E-01 0.106E-01 0.105E-01
   0.997E-01 0.997E-01 0.997E-01   -.938E-01 -.938E-01 -.938E-01   0.257E-02 0.257E-02 0.257E-02   -.101E-01 -.101E-01 -.105E-01
   0.385E+02 0.385E+02 0.385E+02   -.379E+02 -.379E+02 -.379E+02   -.605E+00 -.605E+00 -.605E+00   0.189E-02 0.188E-02 0.188E-02
   -.385E+02 -.385E+02 0.385E+02   0.379E+02 0.379E+02 -.379E+02   0.605E+00 0.605E+00 -.605E+00   -.190E-02 -.187E-02 0.190E-02
   -.385E+02 0.385E+02 -.385E+02   0.379E+02 -.379E+02 0.379E+02   0.605E+00 -.605E+00 0.605E+00   -.187E-02 0.190E-02 -.191E-02
   0.385E+02 -.385E+02 -.385E+02   -.379E+02 0.379E+02 0.379E+02   -.605E+00 0.605E+00 0.605E+00   0.189E-02 -.190E-02 -.187E-02
   0.386E+02 0.386E+02 -.386E+02   -.379E+02 -.379E+02 0.379E+02   -.607E+00 -.607E+00 0.607E+00   -.149E-02 -.150E-02 0.150E-02
   -.386E+02 -.386E+02 -.386E+02   0.379E+02 0.379E+02 0.379E+02   0.607E+00 0.607E+00 0.607E+00   0.153E-02 0.154E-02 0.153E-02
   0.386E+02 -.386E+02 0.386E+02   -.379E+02 0.379E+02 -.379E+02   -.607E+00 0.607E+00 -.607E+00   -.152E-02 0.150E-02 -.149E-02
   -.386E+02 0.386E+02 0.386E+02   0.379E+02 -.379E+02 -.379E+02   0.607E+00 -.607E+00 -.607E+00   0.149E-02 -.149E-02 -.151E-02
   0.386E+02 0.386E+02 -.386E+02   -.379E+02 -.379E+02 0.379E+02   -.607E+00 -.607E+00 0.607E+00   -.152E-02 -.149E-02 0.150E-02
   0.386E+02 -.386E+02 0.386E+02   -.379E+02 0.379E+02 -.379E+02   -.607E+00 0.607E+00 -.607E+00   -.149E-02 0.150E-02 -.150E-02
   -.386E+02 0.386E+02 0.386E+02   0.379E+02 -.379E+02 -.379E+02   0.607E+00 -.607E+00 -.607E+00   0.150E-02 -.151E-02 -.148E-02
   -.385E+02 -.385E+02 0.385E+02   0.379E+02 0.379E+02 -.379E+02   0.605E+00 0.605E+00 -.605E+00   -.187E-02 -.191E-02 0.189E-02
   -.385E+02 0.385E+02 -.385E+02   0.379E+02 -.379E+02 0.379E+02   0.605E+00 -.605E+00 0.605E+00   -.191E-02 0.189E-02 -.187E-02
   0.385E+02 -.385E+02 -.385E+02   -.379E+02 0.379E+02 0.379E+02   -.605E+00 0.605E+00 0.605E+00   0.190E-02 -.187E-02 -.190E-02
   0.385E+02 0.385E+02 0.385E+02   -.379E+02 -.379E+02 -.379E+02   -.605E+00 -.605E+00 -.605E+00   0.187E-02 0.190E-02 0.190E-02
   -.385E+02 -.385E+02 0.385E+02   0.379E+02 0.379E+02 -.379E+02   0.605E+00 0.605E+00 -.605E+00   -.191E-02 -.191E-02 0.186E-02
   -.385E+02 0.385E+02 -.385E+02   0.379E+02 -.379E+02 0.379E+02   0.605E+00 -.605E+00 0.605E+00   -.187E-02 0.186E-02 -.189E-02
   0.386E+02 0.386E+02 -.386E+02   -.379E+02 -.379E+02 0.379E+02   -.607E+00 -.607E+00 0.607E+00   -.149E-02 -.148E-02 0.151E-02
   -.386E+02 -.386E+02 -.386E+02   0.379E+02 0.379E+02 0.379E+02   0.607E+00 0.607E+00 0.607E+00   0.151E-02 0.149E-02 0.150E-02
   0.386E+02 -.386E+02 0.386E+02   -.379E+02 0.379E+02 -.379E+02   -.607E+00 0.607E+00 -.607E+00   -.153E-02 0.154E-02 -.153E-02
   0.386E+02 0.386E+02 -.386E+02   -.379E+02 -.379E+02 0.379E+02   -.607E+00 -.607E+00 0.607E+00   -.153E-02 -.153E-02 0.154E-02
   0.386E+02 -.386E+02 0.386E+02   -.379E+02 0.379E+02 -.379E+02   -.607E+00 0.607E+00 -.607E+00   -.148E-02 0.152E-02 -.148E-02
   -.385E+02 -.385E+02 0.385E+02   0.379E+02 0.379E+02 -.379E+02   0.605E+00 0.605E+00 -.605E+00   -.187E-02 -.188E-02 0.187E-02
   -.385E+02 0.385E+02 -.385E+02   0.379E+02 -.379E+02 0.379E+02   0.605E+00 -.605E+00 0.605E+00   -.191E-02 0.187E-02 -.191E-02
   0.385E+02 0.385E+02 0.385E+02   -.379E+02 -.379E+02 -.379E+02   -.605E+00 -.605E+00 -.605E+00   0.191E-02 0.187E-02 0.190E-02
   0.385E+02 -.385E+02 -.385E+02   -.379E+02 0.379E+02 0.379E+02   -.605E+00 0.605E+00 0.605E+00   0.187E-02 -.191E-02 -.191E-02
   -.386E+02 -.386E+02 -.386E+02   0.379E+02 0.379E+02 0.379E+02   0.607E+00 0.607E+00 0.607E+00   0.148E-02 0.151E-02 0.149E-02
   -.386E+02 0.386E+02 0.386E+02   0.379E+02 -.379E+02 -.379E+02   0.607E+00 -.607E+00 -.607E+00   0.152E-02 -.149E-02 -.149E-02
   -.386E+02 0.386E+02 0.386E+02   0.379E+02 -.379E+02 -.379E+02   0.607E+00 -.607E+00 -.607E+00   0.154E-02 -.153E-02 -.153E-02
   0.385E+02 -.385E+02 -.385E+02   -.379E+02 0.379E+02 0.379E+02   -.605E+00 0.605E+00 0.605E+00   0.187E-02 -.187E-02 -.187E-02
   0.385E+02 0.385E+02 0.385E+02   -.379E+02 -.379E+02 -.379E+02   -.605E+00 -.605E+00 -.605E+00   0.191E-02 0.190E-02 0.187E-02
   -.386E+02 -.386E+02 -.386E+02   0.379E+02 0.379E+02 0.379E+02   0.607E+00 0.607E+00 0.607E+00   0.149E-02 0.149E-02 0.151E-02
   -.221E-06 0.120E-04 0.443E-05   -.853E-13 0.639E-13 -.142E-13   -.289E-14 -.266E-14 -.111E-14   -.950E-05 -.187E-04 0.201E-04

 POSITION                                       TOTAL-FORCE (eV/Angst)
     10.59000     10.59000     10.59000        -0.000000     -0.000000      0.000000
     10.59000      5.29500      5.29500        -0.000000     -0.000000      0.000000
      5.29500      5.29500     10.59000        -0.000000     -0.000000      0.000000
      5.29500     10.59000      5.29500        -0.000000     -0.000000      0.000000
      7.94250      2.64750      7.94250        -0.000000     -0.000000      0.000000
      2.64750      2.64750      2.64750        -0.000000     -0.000000      0.000000
      2.64750      7.94250      7.94250        -0.000000     -0.000000      0.000000
      7.94250      7.94250      2.64750        -0.000000     -0.000000      0.000000
      6.61884      6.61884      6.61884        -0.001829     -0.001829     -0.001829
      3.97116      9.26616      1.32384         0.001829      0.001829     -0.001829
      9.26616      1.32384      3.97116         0.001829     -0.001829      0.001829
      1.32384      3.97116      9.26616        -0.001829      0.001829      0.001829
      9.26616      3.97116      1.32384         0.001829      0.001829     -0.001829
      3.97116      1.32384      9.26616         0.001829     -0.001829      0.001829
      1.32384      9.26616      3.97116        -0.001829      0.001829      0.001829
      6.61884      1.32384      1.32384        -0.001829     -0.001829     -0.001829
      3.97116      3.97116      6.61884         0.001829      0.001829     -0.001829
      9.26616      6.61884      9.26616         0.001829     -0.001829      0.001829
      9.26616      9.26616      6.61884         0.001829      0.001829     -0.001829
      3.97116      6.61884      3.97116         0.001829     -0.001829      0.001829
      1.32384      6.61884      1.32384        -0.001829     -0.001829     -0.001829
      6.61884      3.97116      3.97116        -0.001829      0.001829      0.001829
      6.61884      9.26616      9.26616        -0.001829      0.001829      0.001829
      1.32384      1.32384      6.61884        -0.001829     -0.001829     -0.001829
      4.00908      4.00908      4.00908         0.019351      0.019351      0.019351
      6.58092      1.28592      9.30408        -0.019351     -0.019351      0.019351
      1.28592      9.30408      6.58092        -0.019351      0.019351     -0.019351
      9.30408      6.58092      1.28592         0.019351     -0.019351     -0.019351
      1.36163      6.65663      3.93337         0.018221      0.018221     -0.018221
      9.22837      9.22837      9.22837        -0.018221     -0.018221     -0.018221
      6.65663      3.93337      1.36163         0.018221     -0.018221      0.018221
      3.93337      1.36163      6.65663        -0.018221      0.018221      0.018221
      6.65663      1.36163      3.93337         0.018221      0.018221     -0.018221
      1.36163      3.93337      6.65663         0.018221     -0.018221      0.018221
      3.93337      6.65663      1.36163        -0.018221      0.018221      0.018221
      1.28592      6.58092      9.30408        -0.019351     -0.019351      0.019351
      6.58092      9.30408      1.28592        -0.019351      0.019351     -0.019351
      9.30408      1.28592      6.58092         0.019351     -0.019351     -0.019351
      4.00908      9.30408      9.30408         0.019351      0.019351      0.019351
      6.58092      6.58092      4.00908        -0.019351     -0.019351      0.019351
      1.28592      4.00908      1.28592        -0.019351      0.019351     -0.019351
      1.36163      1.36163      9.22837         0.018221      0.018221     -0.018221
      9.22837      3.93337      3.93337        -0.018221     -0.018221     -0.018221
      6.65663      9.22837      6.65663         0.018221     -0.018221      0.018221
      6.65663      6.65663      9.22837         0.018221      0.018221     -0.018221
      1.36163      9.22837      1.36163         0.018221     -0.018221      0.018221
      1.28592      1.28592      4.00908        -0.019351     -0.019351      0.019351
      6.58092      4.00908      6.58092        -0.019351      0.019351     -0.019351
      9.30408      4.00908      9.30408         0.019351      0.019351      0.019351
      4.00908      6.58092      6.58092         0.019351     -0.019351     -0.019351
      3.93337      9.22837      3.93337        -0.018221     -0.018221     -0.018221
      9.22837      1.36163      1.36163        -0.018221      0.018221      0.018221
      9.22837      6.65663      6.65663        -0.018221      0.018221      0.018221
      4.00908      1.28592      1.28592         0.019351     -0.019351     -0.019351
      9.30408      9.30408      4.00908         0.019351      0.019351      0.019351
      3.93337      3.93337      9.22837        -0.018221     -0.018221     -0.018221
    total drift:                               -0.000010     -0.000007      0.000025

  FREE ENERGIE OF THE ION-ELECTRON SYSTEM (eV)
  free  energy   TOTEN  =      -215.56763282 eV

  energy  without entropy=     -215.56763282  energy(sigma->0) =     -215.56763282

|           W    W    AA    RRRRR   N    N  II  N    N   GGGG   !!!           |
|           W    W   A  A   R    R  NN   N  II  NN   N  G    G  !!!           |
|           W    W  A    A  R    R  N N  N  II  N N  N  G       !!!           |
|           W WW W  AAAAAA  RRRRR   N  N N  II  N  N N  G  GGG   !            |
|           WW  WW  A    A  R   R   N   NN  II  N   NN  G    G                |
|           W    W  A    A  R    R  N    N  II  N    N   GGGG   !!!           |
|     Tetrahedron method does not include variations of the Fermi             |
|     occupations, so forces and stress will be inaccurate. We suggest        |
|     using a different smearing scheme ISMEAR = 1 or 2 for metals in         |
|     relaxations.                                                            |

 total charge

# of ion       s       p       d       tot
    1        0.504   0.433   9.792  10.729
    2        0.504   0.433   9.792  10.729
    3        0.504   0.433   9.792  10.729
    4        0.504   0.433   9.792  10.729
    5        0.504   0.433   9.792  10.729
    6        0.504   0.433   9.792  10.729
    7        0.504   0.433   9.792  10.729
    8        0.504   0.433   9.792  10.729
    9        0.724   0.639   9.963  11.327
   10        0.724   0.639   9.963  11.327
   11        0.724   0.639   9.963  11.327
   12        0.724   0.639   9.963  11.327
   13        0.724   0.639   9.963  11.327
   14        0.724   0.639   9.963  11.327
   15        0.724   0.639   9.963  11.327
   16        0.724   0.639   9.963  11.327
   17        0.724   0.639   9.963  11.327
   18        0.724   0.639   9.963  11.327
   19        0.724   0.639   9.963  11.327
   20        0.724   0.639   9.963  11.327
   21        0.724   0.639   9.963  11.327
   22        0.724   0.639   9.963  11.327
   23        0.724   0.639   9.963  11.327
   24        0.724   0.639   9.963  11.327
   25        1.334   2.408   0.000   3.742
   26        1.334   2.408   0.000   3.742
   27        1.334   2.408   0.000   3.742
   28        1.334   2.408   0.000   3.742
   29        1.334   2.408   0.000   3.742
   30        1.334   2.408   0.000   3.742
   31        1.334   2.408   0.000   3.742
   32        1.334   2.408   0.000   3.742
   33        1.334   2.408   0.000   3.742
   34        1.334   2.408   0.000   3.742
   35        1.334   2.408   0.000   3.742
   36        1.334   2.408   0.000   3.742
   37        1.334   2.408   0.000   3.742
   38        1.334   2.408   0.000   3.742
   39        1.334   2.408   0.000   3.742
   40        1.334   2.408   0.000   3.742
   41        1.334   2.408   0.000   3.742
   42        1.334   2.408   0.000   3.742
   43        1.334   2.408   0.000   3.742
   44        1.334   2.408   0.000   3.742
   45        1.334   2.408   0.000   3.742
   46        1.334   2.408   0.000   3.742
   47        1.334   2.408   0.000   3.742
   48        1.334   2.408   0.000   3.742
   49        1.334   2.408   0.000   3.742
   50        1.334   2.408   0.000   3.742
   51        1.334   2.408   0.000   3.742
   52        1.334   2.408   0.000   3.742
   53        1.334   2.408   0.000   3.742
   54        1.334   2.408   0.000   3.742
   55        1.334   2.408   0.000   3.742
   56        1.334   2.408   0.000   3.742
tot         58.312  90.754 237.750 386.815

 WARNING: Fermi level nearly degenerate with energies of tetrahedron. This may
     result in numerical instabilities because the density changes by tiny
     changes of the Fermi energy. If the calculation converges, the total
     energy will still be reliable. If you notice convergence issues, you can
     try to
     *) Use a Gamma centered k-point grid
     *) Use tetrahedron method without corrections ISMEAR = -4
     *) Don't use tetrahedron method
        ISMEAR = 0 for semiconductors, 1 or 2 for metals

 BZINTS: Fermi energy:    4.270721;  496.000000 electrons
         Band energy:-0.175267E+04;  BLOECHL correction:   -0.000000