 vasp.6.3.2 27Jun22 (build Sep 20 2022 16:10:27) complex

 executed on             LinuxIFC date 2024.11.08  23:09:12

 INCAR:
   SYSTEM = PDOS-Calculation-from-SCF
   ISTART = 0
   ICHARG = 11
   ENCUT = 500.0
   ISMEAR = -5
   SIGMA = 0.05
   LREAL = .FALSE.
   PREC = Accurate
   EDIFF = 1E-07
   NELM = 100
   ALGO = Normal
   IBRION = -1
   LASPH = .TRUE
   NCORE = 9
   ISPIN = 1
   LORBIT = 11
   EMIN = -5
   EMAX = 5
   NEDOS = 5000
   LWAVE = .FALSE.
   LCHARG = .TRUE.
   LVTOT = .TRUE.
   ADDGRID = .TRUE.

 POTCAR:    PAW_PBE Zn 06Sep2000
 POTCAR:    PAW_PBE In_d 06Sep2000
 POTCAR:    PAW_PBE S 06Sep2000
 WARNING: For LVTOT=.TRUE., VASP.5.x writes the TOTAL local potential to the
     file LOCPOT. If you want only the Hartree contributions, use LVHAR=.TRUE.
     instead.

   TITEL  = PAW_PBE Zn 06Sep2000
   POMASS =   65.390; ZVAL   =   12.000    mass and valenz
   ENMAX  =  276.723; ENMIN  =  207.542 eV

   TITEL  = PAW_PBE In_d 06Sep2000
   POMASS =  114.820; ZVAL   =   13.000    mass and valenz
   ENMAX  =  239.211; ENMIN  =  179.409 eV

   TITEL  = PAW_PBE S 06Sep2000
   POMASS =   32.066; ZVAL   =    6.000    mass and valenz
   ENMAX  =  258.689; ENMIN  =  194.016 eV

  PAW_PBE Zn 06Sep2000                  :
  PAW_PBE In_d 06Sep2000                :
  PAW_PBE S 06Sep2000                   :

 POSCAR: Primitive Cell
  positions in direct lattice
  velocities in cartesian coordinates
 exchange correlation table for  LEXCH =        8
   RHO(1)=    0.500       N(1)  =     2000
   RHO(2)=  100.500       N(2)  =     4000

 ion  position               nearest neighbor table
   1  0.392  0.392  0.392-   4 2.31   4 2.31   4 2.31   6 2.54
   2  0.162  0.162  0.162-   6 2.57   6 2.57   6 2.57   7 2.72   7 2.72   7 2.72
   3  0.937  0.937  0.937-   7 2.45   5 2.49   5 2.49   5 2.49
   4  0.044  0.044  0.044-   1 2.31   1 2.31   1 2.31
   5  0.300  0.300  0.300-   3 2.49   3 2.49   3 2.49
   6  0.461  0.461  0.461-   1 2.54   2 2.57   2 2.57   2 2.57
   7  0.870  0.870  0.870-   3 2.45   2 2.72   2 2.72   2 2.72

  LATTYP: Found a trigonal (rhomboedric) cell.
 ALAT       =    12.4562422578
 COS(alpha) =     0.9512521134

  Lattice vectors:

 A1 = (   1.9446880049,   1.1227661331,  12.2521653539)
 A2 = (  -1.9446880670,   1.1227661510,  12.2521653464)
 A3 = (  -0.0000000144,  -2.2455323450,  12.2521653550)

Analysis of symmetry for initial positions (statically):
 Subroutine PRICEL returns:
 Original cell was already a primitive cell.

 Routine SETGRP: Setting up the symmetry group for a
 trigonal (rhombohedral) supercell.

 Subroutine GETGRP returns: Found  6 space group operations
 (whereof  6 operations were pure point group operations)
 out of a pool of 12 trial point group operations.

The static configuration has the point symmetry C_3v.

Analysis of symmetry for dynamics (positions and initial velocities):
 Subroutine PRICEL returns:
 Original cell was already a primitive cell.

 Routine SETGRP: Setting up the symmetry group for a
 trigonal (rhombohedral) supercell.

 Subroutine GETGRP returns: Found  6 space group operations
 (whereof  6 operations were pure point group operations)
 out of a pool of 12 trial point group operations.

The dynamic configuration has the point symmetry C_3v.

 Subroutine INISYM returns: Found  6 space group operations
 (whereof  6 operations are pure point group operations),
 and found     1 'primitive' translations

                                     Primitive cell

  volume of cell :     160.5105

  direct lattice vectors                    reciprocal lattice vectors
     1.944688005  1.122766133 12.252165354     0.257110648  0.148442903  0.027206076
    -1.944688067  1.122766151 12.252165346    -0.257110647  0.148442900  0.027206075
    -0.000000014 -2.245532345 12.252165355    -0.000000001 -0.296885803  0.027206075

  length of vectors
    12.456242254 12.456242258 12.456242266     0.298129756  0.298129753  0.298129754

  position of ions in fractional coordinates (direct lattice)
     0.391750106  0.391750104  0.391750092
     0.161781926  0.161781931  0.161781971
     0.937134660  0.937134667  0.937134656
     0.043793497  0.043793498  0.043793499
     0.299593712  0.299593707  0.299593678
     0.460967032  0.460967029  0.460967008
     0.870379067  0.870379064  0.870379095

  ion indices of the primitive-cell ions
   primitive index   ion index
                 1           1
                 2           2
                 3           3
                 4           4
                 5           5
                 6           6
                 7           7

 KPOINTS: K-Spacing Value to Generate K-Mesh: 0.03

Automatic generation of k-mesh.
 Grid dimensions read from file:
 generate k-points for:   25   25   25

 Generating k-lattice:

  Cartesian coordinates                     Fractional coordinates (reciprocal lattice)
     0.010284426  0.005937716  0.001088243     0.040000000 -0.000000000  0.000000000
    -0.010284426  0.005937716  0.001088243     0.000000000  0.040000000  0.000000000
    -0.000000000 -0.011875432  0.001088243     0.000000000 -0.000000000  0.040000000

  Length of vectors
     0.011925190  0.011925190  0.011925190

  Shift w.r.t. Gamma in fractional coordinates (k-lattice)
     0.000000000  0.000000000  0.000000000

 TETIRR: Found   7825 inequivalent tetrahedra from    93750

 Subroutine IBZKPT returns following result:

 Found   1469 irreducible k-points:

 Following reciprocal coordinates:
            Coordinates               Weight
  0.000000  0.000000  0.000000      1.000000
  0.040000  0.000000  0.000000      6.000000
  0.080000  0.000000  0.000000      6.000000
  0.120000 -0.000000  0.000000      6.000000
  0.160000  0.000000 -0.000000      6.000000
  0.200000 -0.000000 -0.000000      6.000000
  0.240000  0.000000 -0.000000      6.000000
  0.280000  0.000000 -0.000000      6.000000
  0.320000 -0.000000  0.000000      6.000000
  0.360000 -0.000000  0.000000      6.000000
  0.400000 -0.000000  0.000000      6.000000
  0.440000  0.000000  0.000000      6.000000
  0.480000  0.000000 -0.000000      6.000000
  0.040000  0.040000  0.000000      6.000000
  0.080000  0.040000  0.000000     12.000000
  0.120000  0.040000 -0.000000     12.000000
  0.160000  0.040000 -0.000000     12.000000
  0.200000  0.040000 -0.000000     12.000000
  0.240000  0.040000 -0.000000     12.000000
  0.280000  0.040000  0.000000     12.000000
  0.320000  0.040000  0.000000     12.000000
  0.360000  0.040000  0.000000     12.000000
  0.400000  0.040000 -0.000000     12.000000
  0.440000  0.040000 -0.000000     12.000000
  0.480000  0.040000 -0.000000     12.000000
 -0.480000  0.040000 -0.000000     12.000000
 -0.440000  0.040000 -0.000000     12.000000
 -0.400000  0.040000 -0.000000     12.000000
 -0.360000  0.040000  0.000000     12.000000
 -0.320000  0.040000  0.000000     12.000000
 -0.280000  0.040000  0.000000     12.000000
 -0.240000  0.040000 -0.000000     12.000000
 -0.200000  0.040000 -0.000000     12.000000
 -0.160000  0.040000 -0.000000     12.000000
 -0.120000  0.040000 -0.000000     12.000000
 -0.080000  0.040000  0.000000     12.000000
 -0.040000  0.040000  0.000000      6.000000
  0.080000  0.080000 -0.000000      6.000000
  0.120000  0.080000 -0.000000     12.000000
  0.160000  0.080000  0.000000     12.000000
  0.200000  0.080000  0.000000     12.000000
  0.240000  0.080000  0.000000     12.000000
  0.280000  0.080000  0.000000     12.000000
  0.320000  0.080000  0.000000     12.000000
  0.360000  0.080000 -0.000000     12.000000
  0.400000  0.080000 -0.000000     12.000000
  0.440000  0.080000 -0.000000     12.000000
  0.480000  0.080000  0.000000     12.000000
 -0.480000  0.080000 -0.000000     12.000000
 -0.440000  0.080000  0.000000     12.000000
 -0.400000  0.080000  0.000000     12.000000
 -0.360000  0.080000 -0.000000     12.000000
 -0.320000  0.080000 -0.000000     12.000000
 -0.280000  0.080000 -0.000000     12.000000
 -0.240000  0.080000 -0.000000     12.000000
 -0.200000  0.080000 -0.000000     12.000000
 -0.160000  0.080000 -0.000000     12.000000
 -0.120000  0.080000  0.000000     12.000000
 -0.080000  0.080000  0.000000      6.000000
  0.120000  0.120000  0.000000      6.000000
[...]
 -0.440000  0.480000  0.400000     12.000000
 -0.400000  0.480000  0.400000     12.000000
 -0.480000 -0.480000  0.400000      6.000000
 -0.440000 -0.480000  0.400000     12.000000
 -0.440000 -0.440000  0.400000      6.000000
  0.440000  0.440000  0.440000      2.000000
  0.480000  0.440000  0.440000      6.000000
 -0.480000  0.440000  0.440000      6.000000
 -0.440000  0.440000  0.440000      6.000000
  0.480000  0.480000  0.440000      6.000000
 -0.480000  0.480000  0.440000     12.000000
 -0.440000  0.480000  0.440000     12.000000
 -0.480000 -0.480000  0.440000      6.000000
  0.480000  0.480000  0.480000      2.000000
 -0.480000  0.480000  0.480000      6.000000

 Following cartesian coordinates:
            Coordinates               Weight
  0.000000  0.000000  0.000000      1.000000
  0.010284  0.005938  0.001088      6.000000
  0.020569  0.011875  0.002176      6.000000
  0.030853  0.017813  0.003265      6.000000
  0.041138  0.023751  0.004353      6.000000
  0.051422  0.029689  0.005441      6.000000
  0.061707  0.035626  0.006529      6.000000
  0.071991  0.041564  0.007618      6.000000
  0.082275  0.047502  0.008706      6.000000
  0.092560  0.053439  0.009794      6.000000
  0.102844  0.059377  0.010882      6.000000
  0.113129  0.065315  0.011971      6.000000
  0.123413  0.071253  0.013059      6.000000
  0.000000  0.011875  0.002176      6.000000
  0.010284  0.017813  0.003265     12.000000
  0.020569  0.023751  0.004353     12.000000
  0.030853  0.029689  0.005441     12.000000
  0.041138  0.035626  0.006529     12.000000
  0.051422  0.041564  0.007618     12.000000
  0.061707  0.047502  0.008706     12.000000
  0.071991  0.053439  0.009794     12.000000
  0.082275  0.059377  0.010882     12.000000
  0.092560  0.065315  0.011971     12.000000
  0.102844  0.071253  0.013059     12.000000
  0.113129  0.077190  0.014147     12.000000
 -0.133698 -0.065315 -0.011971     12.000000
 -0.123413 -0.059377 -0.010882     12.000000
 -0.113129 -0.053439 -0.009794     12.000000
 -0.102844 -0.047502 -0.008706     12.000000
 -0.092560 -0.041564 -0.007618     12.000000
 -0.082275 -0.035626 -0.006529     12.000000
 -0.071991 -0.029689 -0.005441     12.000000
 -0.061707 -0.023751 -0.004353     12.000000
 -0.051422 -0.017813 -0.003265     12.000000
 -0.041138 -0.011875 -0.002176     12.000000
 -0.030853 -0.005938 -0.001088     12.000000
 -0.020569 -0.000000 -0.000000      6.000000
  0.000000  0.023751  0.004353      6.000000
  0.010284  0.029689  0.005441     12.000000
  0.020569  0.035626  0.006529     12.000000
  0.030853  0.041564  0.007618     12.000000
  0.041138  0.047502  0.008706     12.000000
  0.051422  0.053439  0.009794     12.000000
  0.061707  0.059377  0.010882     12.000000
  0.071991  0.065315  0.011971     12.000000
  0.082275  0.071253  0.013059     12.000000
  0.092560  0.077190  0.014147     12.000000
  0.102844  0.083128  0.015235     12.000000
 -0.143982 -0.059377 -0.010882     12.000000
[...]
   0.48000000  0.48000000  0.48000000       0.000
  -0.48000000  0.48000000  0.48000000       0.000

 position of ions in fractional coordinates (direct lattice)
   0.39175011  0.39175010  0.39175009
   0.16178193  0.16178193  0.16178197
   0.93713466  0.93713467  0.93713466
   0.04379350  0.04379350  0.04379350
   0.29959371  0.29959371  0.29959368
   0.46096703  0.46096703  0.46096701
   0.87037907  0.87037906  0.87037910

 position of ions in cartesian coordinates  (Angst):
  -0.00000003  0.00000000 14.39936103
  -0.00000002 -0.00000010  5.94653734
  -0.00000008 -0.00000004 34.44578647
  -0.00000001 -0.00000001  1.60969554
  -0.00000001  0.00000005 11.01201461
  -0.00000003  0.00000002 16.94353255
  -0.00000006 -0.00000012 31.99208506

 k-point   1 :   0.0000 0.0000 0.0000  plane waves:    4047
 k-point   2 :   0.0400 0.0000 0.0000  plane waves:    4047
 k-point   3 :   0.0800 0.0000 0.0000  plane waves:    4047
 k-point   4 :   0.1200-0.0000 0.0000  plane waves:    4051
 k-point   5 :   0.1600 0.0000-0.0000  plane waves:    4050
 k-point   6 :   0.2000-0.0000-0.0000  plane waves:    4060
 k-point   7 :   0.2400 0.0000-0.0000  plane waves:    4064
 k-point   8 :   0.2800 0.0000-0.0000  plane waves:    4078
 k-point   9 :   0.3200-0.0000 0.0000  plane waves:    4068
 k-point  10 :   0.3600-0.0000 0.0000  plane waves:    4073
 k-point  11 :   0.4000-0.0000 0.0000  plane waves:    4073
 k-point  12 :   0.4400 0.0000 0.0000  plane waves:    4090
 k-point  13 :   0.4800 0.0000-0.0000  plane waves:    4089
 k-point  14 :   0.0400 0.0400 0.0000  plane waves:    4049
 k-point  15 :   0.0800 0.0400 0.0000  plane waves:    4044
 k-point  16 :   0.1200 0.0400-0.0000  plane waves:    4043
 k-point  17 :   0.1600 0.0400-0.0000  plane waves:    4049
 k-point  18 :   0.2000 0.0400-0.0000  plane waves:    4059
 k-point  19 :   0.2400 0.0400-0.0000  plane waves:    4062
 k-point  20 :   0.2800 0.0400 0.0000  plane waves:    4066
 k-point  21 :   0.3200 0.0400 0.0000  plane waves:    4078
 k-point  22 :   0.3600 0.0400 0.0000  plane waves:    4073
 k-point  23 :   0.4000 0.0400-0.0000  plane waves:    4081
 k-point  24 :   0.4400 0.0400-0.0000  plane waves:    4085
 k-point  25 :   0.4800 0.0400-0.0000  plane waves:    4091
 k-point  26 :  -0.4800 0.0400-0.0000  plane waves:    4096
 k-point  27 :  -0.4400 0.0400-0.0000  plane waves:    4091
 k-point  28 :  -0.4000 0.0400-0.0000  plane waves:    4080
 k-point  29 :  -0.3600 0.0400 0.0000  plane waves:    4079
 k-point  30 :  -0.3200 0.0400 0.0000  plane waves:    4072
 k-point  31 :  -0.2800 0.0400 0.0000  plane waves:    4078
 k-point  32 :  -0.2400 0.0400-0.0000  plane waves:    4069
 k-point  33 :  -0.2000 0.0400-0.0000  plane waves:    4059
 k-point  34 :  -0.1600 0.0400-0.0000  plane waves:    4056
 k-point  35 :  -0.1200 0.0400-0.0000  plane waves:    4050
 k-point  36 :  -0.0800 0.0400 0.0000  plane waves:    4044
 k-point  37 :  -0.0400 0.0400 0.0000  plane waves:    4043
 k-point  38 :   0.0800 0.0800-0.0000  plane waves:    4044
 k-point  39 :   0.1200 0.0800-0.0000  plane waves:    4044
 k-point  40 :   0.1600 0.0800 0.0000  plane waves:    4041
 k-point  41 :   0.2000 0.0800 0.0000  plane waves:    4050
 k-point  42 :   0.2400 0.0800 0.0000  plane waves:    4063
 k-point  43 :   0.2800 0.0800 0.0000  plane waves:    4067
 k-point  44 :   0.3200 0.0800 0.0000  plane waves:    4076
 k-point  45 :   0.3600 0.0800-0.0000  plane waves:    4080
 k-point  46 :   0.4000 0.0800-0.0000  plane waves:    4080
 k-point  47 :   0.4400 0.0800-0.0000  plane waves:    4074
 k-point  48 :   0.4800 0.0800 0.0000  plane waves:    4087
 k-point  49 :  -0.4800 0.0800-0.0000  plane waves:    4085
 k-point  50 :  -0.4400 0.0800 0.0000  plane waves:    4090
 k-point  51 :  -0.4000 0.0800 0.0000  plane waves:    4084
 k-point  52 :  -0.3600 0.0800-0.0000  plane waves:    4073
 k-point  53 :  -0.3200 0.0800-0.0000  plane waves:    4082
 k-point  54 :  -0.2800 0.0800-0.0000  plane waves:    4082
 k-point  55 :  -0.2400 0.0800-0.0000  plane waves:    4072
 k-point  56 :  -0.2000 0.0800-0.0000  plane waves:    4067
 k-point  57 :  -0.1600 0.0800-0.0000  plane waves:    4059
 k-point  58 :  -0.1200 0.0800 0.0000  plane waves:    4050
 k-point  59 :  -0.0800 0.0800 0.0000  plane waves:    4039
 k-point  60 :   0.1200 0.1200 0.0000  plane waves:    4050
[...]
 k-point *** :  -0.4400 0.4800 0.4000  plane waves:    4043
 k-point *** :  -0.4000 0.4800 0.4000  plane waves:    4047
 k-point *** :  -0.4800-0.4800 0.4000  plane waves:    4045
 k-point *** :  -0.4400-0.4800 0.4000  plane waves:    4055
 k-point *** :  -0.4400-0.4400 0.4000  plane waves:    4058
 k-point *** :   0.4400 0.4400 0.4400  plane waves:    4061
 k-point *** :   0.4800 0.4400 0.4400  plane waves:    4045
 k-point *** :  -0.4800 0.4400 0.4400  plane waves:    4041
 k-point *** :  -0.4400 0.4400 0.4400  plane waves:    4049
 k-point *** :   0.4800 0.4800 0.4400  plane waves:    4048
 k-point *** :  -0.4800 0.4800 0.4400  plane waves:    4053
 k-point *** :  -0.4400 0.4800 0.4400  plane waves:    4039
 k-point *** :  -0.4800-0.4800 0.4400  plane waves:    4037
 k-point *** :   0.4800 0.4800 0.4800  plane waves:    4052
 k-point *** :  -0.4800 0.4800 0.4800  plane waves:    4046

 maximum and minimum number of plane-waves per node :       474      424

 maximum number of plane-waves:      4107
 maximum index in each direction:
   IXMAX=   23   IYMAX=   23   IZMAX=   22
   IXMIN=  -23   IYMIN=  -23   IZMIN=  -23

 parallel 3D FFT for wavefunctions:
    minimum data exchange during FFTs selected (reduces bandwidth)
 parallel 3D FFT for charge:
    minimum data exchange during FFTs selected (reduces bandwidth)

 initial charge density was supplied:
 number of electron      62.0000004 magnetization
 keeping initial charge density in first step

 Maximum index for augmentation-charges        55405 (set IRDMAX)

 First call to EWALD:  gamma=   0.326
 Maximum number of real-space cells 4x 4x 4
 Maximum number of reciprocal cells 6x 6x 6

--------------------------------------- Iteration      1(   1)  ---------------------------------------

 BZINTS: Fermi energy:   19.982523;   62.000000 electrons
         Band energy: 0.353189E+03;  BLOECHL correction:   -0.237099

 eigenvalue-minimisations  :117648
 total energy-change (2. order) : 0.5876017E+03  (-0.2766499E+04)
 number of electron      62.0000004 magnetization
 augmentation part       62.0000004 magnetization

 Free energy of the ion-electron system (eV)
  alpha Z        PSCENC =       144.36138454
  Ewald energy   TEWEN  =     -4033.89893700
  -Hartree energ DENC   =     -1931.19976897
  -exchange      EXHF   =         0.00000000
  -V(xc)+E(xc)   XCENC  =       190.73264886
  PAW double counting   =      8145.74530577    -8291.09692519
  entropy T*S    EENTRO =         0.00000000
  eigenvalues    EBANDS =       353.18901033
  atomic energy  EATOM  =      6009.76902234
  Solvation  Ediel_sol  =         0.00000000
  free energy    TOTEN  =       587.60174067 eV

  energy without entropy =      587.60174067  energy(sigma->0) =      587.60174067

[...]

 BZINTS: Fermi energy:    8.260384;   62.000000 electrons
         Band energy:-0.174408E+03;  BLOECHL correction:   -0.068231

 eigenvalue-minimisations  :118048
 total energy-change (2. order) :-0.5275973E+03  (-0.5064203E+03)
 number of electron      62.0000004 magnetization
 augmentation part       62.0000004 magnetization

[...]

 eigenvalue-minimisations  :170824
 total energy-change (2. order) :-0.1127428E-06  (-0.1109444E-06)
 number of electron      62.0000004 magnetization
 augmentation part       62.0000004 magnetization

[...]

--------------------------------------- Iteration      1(  10)  ---------------------------------------

[...]

 eigenvalue-minimisations  : 97192
 total energy-change (2. order) :-0.9431460E-09  (-0.2739495E-08)
 number of electron      62.0000004 magnetization
 augmentation part       62.0000004 magnetization

 Free energy of the ion-electron system (eV)
  alpha Z        PSCENC =       144.36138454
  Ewald energy   TEWEN  =     -4033.89893700
  -Hartree energ DENC   =     -1931.19976897
  -exchange      EXHF   =         0.00000000
  -V(xc)+E(xc)   XCENC  =       190.73264886
  PAW double counting   =      8145.74530577    -8291.09692519
  entropy T*S    EENTRO =         0.00000000
  eigenvalues    EBANDS =      -261.07729311
  atomic energy  EATOM  =      6009.76902234
  Solvation  Ediel_sol  =         0.00000000
  free energy    TOTEN  =       -26.66456278 eV

  energy without entropy =      -26.66456278  energy(sigma->0) =      -26.66456278

 average (electrostatic) potential at core
  the test charge radii are     0.9521  1.0774  0.9698
  (the norm of the test charge is              1.0000)
       1 -33.7298       2 -97.0390       3 -97.5274       4 -85.6459       5 -87.7961
       6 -87.0218       7 -87.2350

 E-fermi :   4.4201     XC(G=0):  -9.3846     alpha+bet :-10.0174

 Fermi energy:         4.4200632562

 k-point     1 :       0.0000    0.0000    0.0000
  band No.  band energies     occupation
      1     -11.0959      2.00000
      2     -10.9002      2.00000
      3     -10.9002      2.00000
      4     -10.7231      2.00000
      5     -10.7231      2.00000
      6     -10.3710      2.00000
      7     -10.3710      2.00000
      8     -10.3520      2.00000
      9     -10.2218      2.00000
     10     -10.2218      2.00000
     11      -9.8012      2.00000
     12      -9.2026      2.00000
     13      -8.2633      2.00000
     14      -7.4693      2.00000
     15      -2.1012      2.00000
     16      -1.6428      2.00000
     17      -1.6428      2.00000
     18      -1.4129      2.00000
     19      -1.2001      2.00000
     20      -1.2001      2.00000
     21       0.3358      2.00000
     22       1.3382      2.00000
     23       1.9627      2.00000
     24       1.9627      2.00000
     25       2.6188      2.00000
     26       2.6188      2.00000
     27       2.8934      2.00000
     28       2.8934      2.00000
     29       3.8099      2.00000
     30       4.4197      2.00000
     31       4.4197      2.00000
     32       4.6709      0.00000
     33       6.1831      0.00000
     34       7.0930      0.00000
     35       7.7833      0.00000
     36       8.8355      0.00000
     37       8.8355      0.00000
     38       8.9202      0.00000
     39       9.5788      0.00000
     40       9.5788      0.00000

[...]

 k-point  1469 :      -0.4800    0.4800    0.4800
  band No.  band energies     occupation
      1     -11.0979      2.00000
      2     -10.9048      2.00000
      3     -10.8987      2.00000
      4     -10.7247      2.00000
      5     -10.7230      2.00000
      6     -10.3830      2.00000
      7     -10.3697      2.00000
      8     -10.3442      2.00000
      9     -10.2233      2.00000
     10     -10.2216      2.00000
     11      -9.7735      2.00000
     12      -9.2156      2.00000
     13      -8.2025      2.00000
     14      -7.4931      2.00000
     15      -2.1375      2.00000
     16      -1.6428      2.00000
     17      -1.6394      2.00000
     18      -1.2045      2.00000
     19      -1.2002      2.00000
     20      -1.1657      2.00000
     21      -0.1945      2.00000
     22       1.8437      2.00000
     23       1.9403      2.00000
     24       2.0546      2.00000
     25       2.4563      2.00000
     26       2.5791      2.00000
     27       2.8363      2.00000
     28       2.9094      2.00000
     29       3.1702      2.00000
     30       4.3217      2.00000
     31       4.3969      2.00000
     32       5.3929      0.00000
     33       6.0062      0.00000
     34       7.2453      0.00000
     35       7.6647      0.00000
     36       8.6983      0.00000
     37       8.8842      0.00000
     38       9.0480      0.00000
     39       9.5485      0.00000
     40       9.5738      0.00000

 soft charge-density along one line, spin component           1
         0         1         2         3         4         5         6         7         8         9
 total charge-density along one line

------------------------ aborting loop because EDIFF is reached ----------------------------------------

 total charge

# of ion       s       p       d       tot
    1        0.526   0.450   9.795  10.771
    2        0.733   0.606   9.948  11.287
    3        0.789   0.699   9.936  11.424
    4        1.320   2.413   0.000   3.733
    5        1.362   2.342   0.000   3.704
    6        1.347   2.375   0.000   3.722
    7        1.344   2.383   0.000   3.727
tot          7.421  11.268  29.678  48.367

  FORCE on cell =-STRESS in cart. coord.  units (eV):
  Direction    XX          YY          ZZ          XY          YZ          ZX
  Alpha Z   144.36138   144.36138   144.36138
  Ewald   -1174.00427 -1174.00437 -1685.89483     0.00002     0.00001    -0.00000
  Hartree   766.92982   766.92982   397.32747     0.00000    -0.00000     0.00000
  E(xc)    -289.41530  -289.41530  -289.58285     0.00000     0.00000    -0.00000
  Local    -662.99157  -662.99149   212.72852    -0.00001    -0.00000     0.00000
  n-local   335.23663   332.53058   331.09472    -3.26908    -0.20876     0.28315
  augment   290.81554   290.81554   290.92510    -0.00000    -0.00000    -0.00000
  Kinetic   595.10100   589.65747   600.92153    -6.82320    -0.29050     0.18070
  Fock        0.00000     0.00000     0.00000     0.00000     0.00000     0.00000
  Total       1.95844     1.95844     1.88105    -0.00000    -0.00000    -0.00000
  in kB      19.54867    19.54867    18.77619    -0.00000    -0.00000    -0.00000

 VOLUME and BASIS-vectors are now :
  energy-cutoff  :      500.00
  volume of cell :      160.51
      direct lattice vectors                 reciprocal lattice vectors
     1.944688005  1.122766133 12.252165354     0.257110648  0.148442903  0.027206076
    -1.944688067  1.122766151 12.252165346    -0.257110647  0.148442900  0.027206075
    -0.000000014 -2.245532345 12.252165355    -0.000000001 -0.296885803  0.027206075

  length of vectors
    12.456242254 12.456242258 12.456242266     0.298129756  0.298129753  0.298129754

 FORCES acting on ions
    electron-ion (+dipol)            ewald-force                    non-local-force                 convergence-correction
   0.152E-05 -.271E-05 0.102E+03   -.435E-05 -.680E-05 -.104E+03   -.528E-08 -.420E-08 0.254E+01   0.163E-04 0.112E-03 0.676E-01
   0.239E-05 0.220E-04 -.523E+02   0.302E-05 0.154E-04 0.496E+02   -.578E-08 -.460E-08 0.278E+01   -.267E-04 -.220E-03 -.262E-02
   0.265E-05 -.383E-05 -.616E+02   0.425E-05 0.847E-05 0.609E+02   -.169E-08 -.135E-08 0.813E+00   -.312E-04 0.222E-04 -.936E-01
   -.240E-05 -.149E-05 0.124E+03   0.480E-05 0.591E-05 -.127E+03   -.690E-08 -.549E-08 0.332E+01   -.175E-05 -.559E-05 0.269E-01
   -.249E-05 -.361E-04 -.115E+03   -.527E-05 -.587E-05 0.122E+03   0.140E-07 0.111E-07 -.672E+01   0.459E-05 0.160E-04 -.199E-01
   -.108E-05 -.211E-04 0.695E+02   -.321E-05 -.139E-04 -.716E+02   -.454E-08 -.361E-08 0.218E+01   0.256E-05 0.221E-04 0.341E-02
   -.409E-05 0.406E-04 -.739E+02   0.756E-06 -.313E-05 0.708E+02   -.632E-08 -.503E-08 0.304E+01   0.145E-05 -.106E-04 -.145E-02
   -.350E-05 -.256E-05 -.793E+01   0.215E-14 0.193E-13 -.284E-13   -.165E-07 -.132E-07 0.794E+01   -.347E-04 -.641E-04 -.197E-01

 POSITION                                       TOTAL-FORCE (eV/Angst)
     -0.00000      0.00000     14.39936         0.000000      0.000000     -0.044401
     -0.00000     -0.00000      5.94654        -0.000000     -0.000000      0.096139
     -0.00000     -0.00000     34.44579         0.000000      0.000000     -0.029376
     -0.00000     -0.00000      1.60970         0.000000      0.000000     -0.034777
     -0.00000      0.00000     11.01201        -0.000000     -0.000000      0.048010
     -0.00000      0.00000     16.94353        -0.000000     -0.000000      0.024730
     -0.00000     -0.00000     31.99209         0.000000      0.000000     -0.060326
    total drift:                               -0.000038     -0.000067      0.000022

  FREE ENERGIE OF THE ION-ELECTRON SYSTEM (eV)
  free  energy   TOTEN  =       -26.66456278 eV

  energy  without entropy=      -26.66456278  energy(sigma->0) =      -26.66456278

 total charge

# of ion       s       p       d       tot
    1        0.526   0.450   9.795  10.771
    2        0.733   0.606   9.948  11.287
    3        0.789   0.699   9.936  11.424
    4        1.320   2.413   0.000   3.733
    5        1.362   2.342   0.000   3.704
    6        1.347   2.375   0.000   3.722
    7        1.344   2.383   0.000   3.727
tot          7.421  11.268  29.678  48.367

 BZINTS: Fermi energy:    4.420063;   62.000000 electrons
         Band energy:-0.261077E+03;  BLOECHL correction:    0.000000