 vasp.6.3.2 27Jun22 (build Sep 20 2022 16:10:27) complex

 executed on             LinuxIFC date 2024.12.02  19:54:23

 INCAR:
   SYSTEM = PDOS-Calculation-SCF-run
   ISTART = 0
   ICHARG = 2
   ENCUT = 600.0
   ISMEAR = 0
   SIGMA = 0.05
   LREAL = .FALSE.
   PREC = Accurate
   EDIFF = 1E-08
   EDIFFG = -0.02
   NELM = 200
   ALGO = Normal
   IBRION = -1
   ISYM = 0
   LMAXMIX = 4
   NSW = 0
   LASPH = .TRUE
   ADDGRID = .TRUE.
   NCORE = 9
   ISPIN = 1
   LWAVE = .FALSE.
   LCHARG = .TRUE.
   IVDW = 11
   GGA = PE

 POTCAR:    PAW_PBE Zn 06Sep2000
 POTCAR:    PAW_PBE In_d 06Sep2000
 POTCAR:    PAW_PBE S 06Sep2000
 POTCAR:    PAW_PBE Zn 06Sep2000
   VRHFIN =Zn: d10 p2

   TITEL  = PAW_PBE Zn 06Sep2000
   POMASS =   65.390; ZVAL   =   12.000    mass and valenz
   ENMAX  =  276.723; ENMIN  =  207.542 eV

   TITEL  = PAW_PBE In_d 06Sep2000
   POMASS =  114.820; ZVAL   =   13.000    mass and valenz
   ENMAX  =  239.211; ENMIN  =  179.409 eV

   TITEL  = PAW_PBE S 06Sep2000
   POMASS =   32.066; ZVAL   =    6.000    mass and valenz
   ENMAX  =  258.689; ENMIN  =  194.016 eV

  PAW_PBE Zn 06Sep2000                  :
  PAW_PBE In_d 06Sep2000                :
  PAW_PBE S 06Sep2000                   :

 POSCAR: Primitive Cell
  positions in direct lattice
  velocities in cartesian coordinates
 exchange correlation table for  LEXCH =        8
   RHO(1)=    0.500       N(1)  =     2000
   RHO(2)=  100.500       N(2)  =     4000

 ion  position               nearest neighbor table
   1  0.392  0.392  0.392-   4 2.31   4 2.31   4 2.31   6 2.55
   2  0.162  0.162  0.162-   6 2.57   6 2.57   6 2.57   7 2.73   7 2.73   7 2.73
   3  0.937  0.937  0.937-   7 2.45   5 2.49   5 2.49   5 2.49
   4  0.044  0.044  0.044-   1 2.31   1 2.31   1 2.31
   5  0.300  0.300  0.300-   3 2.49   3 2.49   3 2.49
   6  0.461  0.461  0.461-   1 2.55   2 2.57   2 2.57   2 2.57
   7  0.870  0.870  0.870-   3 2.45   2 2.73   2 2.73   2 2.73

IMPORTANT INFORMATION: All symmetrisations will be switched off!
NOSYMM: (Re-)initialisation of all symmetry stuff for point group C_1.

                                     Primitive cell

  volume of cell :     160.9209

  direct lattice vectors                    reciprocal lattice vectors
     1.946732572  1.123946533 12.257705653     0.256840619  0.148287000  0.027193779
    -1.946732567  1.123946519 12.257705620    -0.256840621  0.148287000  0.027193779
     0.000000002 -2.247893213 12.257705630     0.000000001 -0.296574000  0.027193777

  length of vectors
    12.462117452 12.462117418 12.462117445     0.297818132  0.297818133  0.297818131

  position of ions in fractional coordinates (direct lattice)
     0.391739536  0.391739566  0.391739516
     0.161785311  0.161785303  0.161785315
     0.937129698  0.937129682  0.937129710
     0.043821776  0.043821811  0.043821756
     0.299532370  0.299532350  0.299532381
     0.461015730  0.461015704  0.461015733
     0.870375579  0.870375584  0.870375588

  ion indices of the primitive-cell ions
   primitive index   ion index
                 1           1
                 2           2
                 3           3
                 4           4
                 5           5
                 6           6
                 7           7

 KPOINTS: K-Spacing Value to Generate K-Mesh: 0.03

Automatic generation of k-mesh.
 Grid dimensions read from file:
 generate k-points for:   15   15   15

 Generating k-lattice:

  Cartesian coordinates                     Fractional coordinates (reciprocal lattice)
     0.017122708  0.009885800  0.001812919     0.066666667  0.000000000  0.000000000
    -0.017122708  0.009885800  0.001812919    -0.000000000  0.066666667 -0.000000000
     0.000000000 -0.019771600  0.001812918     0.000000000  0.000000000  0.066666667

  Length of vectors
     0.019854542  0.019854542  0.019854542

  Shift w.r.t. Gamma in fractional coordinates (k-lattice)
     0.000000000  0.000000000  0.000000000

 Subroutine IBZKPT returns following result:

 Found   1688 irreducible k-points:

 Following reciprocal coordinates:
            Coordinates               Weight
  0.000000  0.000000  0.000000      1.000000
  0.066667  0.000000 -0.000000      2.000000
 -0.000000  0.066667 -0.000000      2.000000
  0.000000  0.000000  0.066667      2.000000
  0.133333 -0.000000  0.000000      2.000000
  0.000000  0.133333  0.000000      2.000000
 -0.000000 -0.000000  0.133333      2.000000
  0.200000  0.000000  0.000000      2.000000
  0.000000  0.200000 -0.000000      2.000000
  0.000000  0.000000  0.200000      2.000000
  0.266667 -0.000000  0.000000      2.000000
 -0.000000  0.266667 -0.000000      2.000000
 -0.000000 -0.000000  0.266667      2.000000
  0.333333  0.000000  0.000000      2.000000
 -0.000000  0.333333  0.000000      2.000000
  0.000000  0.000000  0.333333      2.000000
  0.400000  0.000000  0.000000      2.000000
  0.000000  0.400000  0.000000      2.000000
  0.000000  0.000000  0.400000      2.000000
  0.466667  0.000000 -0.000000      2.000000
 -0.000000  0.466667 -0.000000      2.000000
  0.000000  0.000000  0.466667      2.000000
  0.066667  0.066667 -0.000000      2.000000
 -0.066667 -0.000000 -0.066667      2.000000
 -0.000000  0.066667  0.066667      2.000000
  0.133333  0.066667 -0.000000      2.000000
 -0.133333 -0.000000 -0.066667      2.000000
  0.000000  0.133333  0.066667      2.000000
 -0.066667 -0.133333 -0.000000      2.000000
  0.066667  0.000000  0.133333      2.000000
  0.000000 -0.066667 -0.133333      2.000000
  0.200000  0.066667 -0.000000      2.000000
 -0.200000  0.000000 -0.066667      2.000000
  0.000000  0.200000  0.066667      2.000000
 -0.066667 -0.200000  0.000000      2.000000
  0.066667  0.000000  0.200000      2.000000
  0.000000 -0.066667 -0.200000      2.000000
  0.266667  0.066667 -0.000000      2.000000
 -0.266667 -0.000000 -0.066667      2.000000
 -0.000000  0.266667  0.066667      2.000000
 -0.066667 -0.266667  0.000000      2.000000
  0.066667  0.000000  0.266667      2.000000
  0.000000 -0.066667 -0.266667      2.000000
  0.333333  0.066667 -0.000000      2.000000
 -0.333333  0.000000 -0.066667      2.000000
 -0.000000  0.333333  0.066667      2.000000
 -0.066667 -0.333333 -0.000000      2.000000
  0.066667  0.000000  0.333333      2.000000
  0.000000 -0.066667 -0.333333      2.000000
  0.400000  0.066667  0.000000      2.000000
 -0.400000 -0.000000 -0.066667      2.000000
 -0.000000  0.400000  0.066667      2.000000
 -0.066667 -0.400000 -0.000000      2.000000
  0.066667  0.000000  0.400000      2.000000
  0.000000 -0.066667 -0.400000      2.000000
  0.466667  0.066667  0.000000      2.000000
 -0.466667  0.000000 -0.066667      2.000000
 -0.000000  0.466667  0.066667      2.000000
 -0.066667 -0.466667  0.000000      2.000000
  0.066667  0.000000  0.466667      2.000000
[...]
  0.466667  0.400000 -0.466667      2.000000
 -0.400000 -0.466667  0.466667      2.000000
 -0.400000  0.466667  0.400000      2.000000
  0.400000 -0.400000 -0.466667      2.000000
  0.400000 -0.400000  0.466667      2.000000
 -0.466667  0.400000 -0.400000      2.000000
  0.466667  0.400000 -0.400000      2.000000
 -0.400000 -0.466667  0.400000      2.000000
 -0.466667 -0.466667  0.400000      2.000000
  0.466667 -0.400000  0.466667      2.000000
  0.400000 -0.466667 -0.466667      2.000000
  0.466667  0.466667  0.466667      2.000000
 -0.466667  0.466667  0.466667      2.000000
  0.466667 -0.466667  0.466667      2.000000
  0.466667  0.466667 -0.466667      2.000000

 Following cartesian coordinates:
            Coordinates               Weight
  0.000000  0.000000  0.000000      1.000000
  0.017123  0.009886  0.001813      2.000000
 -0.017123  0.009886  0.001813      2.000000
  0.000000 -0.019772  0.001813      2.000000
  0.034245  0.019772  0.003626      2.000000
 -0.034245  0.019772  0.003626      2.000000
  0.000000 -0.039543  0.003626      2.000000
  0.051368  0.029657  0.005439      2.000000
 -0.051368  0.029657  0.005439      2.000000
  0.000000 -0.059315  0.005439      2.000000
  0.068491  0.039543  0.007252      2.000000
 -0.068491  0.039543  0.007252      2.000000
  0.000000 -0.079086  0.007252      2.000000
  0.085614  0.049429  0.009065      2.000000
 -0.085614  0.049429  0.009065      2.000000
  0.000000 -0.098858  0.009065      2.000000
  0.102736  0.059315  0.010878      2.000000
 -0.102736  0.059315  0.010878      2.000000
  0.000000 -0.118630  0.010878      2.000000
  0.119859  0.069201  0.012690      2.000000
 -0.119859  0.069201  0.012690      2.000000
  0.000000 -0.138401  0.012690      2.000000
 -0.000000  0.019772  0.003626      2.000000
 -0.017123  0.009886 -0.003626      2.000000
 -0.017123 -0.009886  0.003626      2.000000
  0.017123  0.029657  0.005439      2.000000
 -0.034245  0.000000 -0.005439      2.000000
 -0.034245 -0.000000  0.005439      2.000000
  0.017123 -0.029657 -0.005439      2.000000
  0.017123 -0.029657  0.005439      2.000000
  0.017123  0.029657 -0.005439      2.000000
  0.034245  0.039543  0.007252      2.000000
 -0.051368 -0.009886 -0.007252      2.000000
 -0.051368  0.009886  0.007252      2.000000
  0.034245 -0.039543 -0.007252      2.000000
  0.017123 -0.049429  0.007252      2.000000
  0.017123  0.049429 -0.007252      2.000000
  0.051368  0.049429  0.009065      2.000000
 -0.068491 -0.019772 -0.009065      2.000000
 -0.068491  0.019772  0.009065      2.000000
  0.051368 -0.049429 -0.009065      2.000000
  0.017123 -0.069201  0.009065      2.000000
  0.017123  0.069201 -0.009065      2.000000
  0.068491  0.059315  0.010878      2.000000
 -0.085614 -0.029657 -0.010878      2.000000
 -0.085614  0.029657  0.010878      2.000000
  0.068491 -0.059315 -0.010878      2.000000
  0.017123 -0.088972  0.010878      2.000000
  0.017123  0.088972 -0.010878      2.000000
  0.085614  0.069201  0.012690      2.000000
 -0.102736 -0.039543 -0.012690      2.000000
 -0.102736  0.039543  0.012690      2.000000
  0.085614 -0.069201 -0.012690      2.000000
  0.017123 -0.108744  0.012690      2.000000
  0.017123  0.108744 -0.012690      2.000000
  0.102736  0.079086  0.014503      2.000000
 -0.119859 -0.049429 -0.014503      2.000000
 -0.119859  0.049429  0.014503      2.000000
  0.102736 -0.079086 -0.014503      2.000000
  0.017123 -0.128515  0.014503      2.000000
[...]
  0.017123  0.266917  0.010878      2.000000
  0.017123 -0.266917 -0.010878      2.000000
 -0.222595 -0.108744  0.012690      2.000000
  0.205472  0.138401 -0.012690      2.000000
  0.205472 -0.138401  0.012690      2.000000
 -0.222595  0.108744 -0.012690      2.000000
  0.017123  0.247145  0.012690      2.000000
  0.017123 -0.247145 -0.012690      2.000000
  0.000000 -0.257031 -0.014503      2.000000
  0.222595 -0.128515  0.014503      2.000000
  0.222595  0.128515 -0.014503      2.000000
 -0.000000 -0.000000  0.038071      2.000000
 -0.239718 -0.138401  0.012690      2.000000
  0.239718 -0.138401  0.012690      2.000000
 -0.000000  0.276802  0.012690      2.000000

 SYSTEM =  PDOS-Calculation-SCF-run
 POSCAR =  Primitive Cell

 Startparameter for this run:
   NWRITE =      2    write-flag & timer
   PREC   = accura    normal or accurate (medium, high low for compatibility)
[...]

 position of ions in fractional coordinates (direct lattice)
   0.39173954  0.39173957  0.39173952
   0.16178531  0.16178530  0.16178532
   0.93712970  0.93712968  0.93712971
   0.04382178  0.04382181  0.04382176
   0.29953237  0.29953235  0.29953238
   0.46101573  0.46101570  0.46101573
   0.87037558  0.87037558  0.87037559

 position of ions in cartesian coordinates  (Angst):
  -0.00000006  0.00000002 14.40548387
   0.00000002 -0.00000004  5.94935011
   0.00000004 -0.00000020 34.46117989
  -0.00000007  0.00000008  1.61146347
   0.00000004 -0.00000009 11.01473875
   0.00000005 -0.00000011 16.95298506
  -0.00000000 -0.00000016 32.00642309

 k-point   1 :   0.0000 0.0000 0.0000  plane waves:    5383
 k-point   2 :   0.0667 0.0000-0.0000  plane waves:    5375
 k-point   3 :  -0.0000 0.0667-0.0000  plane waves:    5375
 k-point   4 :   0.0000 0.0000 0.0667  plane waves:    5375
 k-point   5 :   0.1333-0.0000 0.0000  plane waves:    5375
 k-point   6 :   0.0000 0.1333 0.0000  plane waves:    5375
 k-point   7 :  -0.0000-0.0000 0.1333  plane waves:    5375
 k-point   8 :   0.2000 0.0000 0.0000  plane waves:    5358
 k-point   9 :   0.0000 0.2000-0.0000  plane waves:    5358
 k-point  10 :   0.0000 0.0000 0.2000  plane waves:    5358
 k-point  11 :   0.2667-0.0000 0.0000  plane waves:    5356
 k-point  12 :  -0.0000 0.2667-0.0000  plane waves:    5356
 k-point  13 :  -0.0000-0.0000 0.2667  plane waves:    5356
 k-point  14 :   0.3333 0.0000 0.0000  plane waves:    5370
 k-point  15 :  -0.0000 0.3333 0.0000  plane waves:    5370
 k-point  16 :   0.0000 0.0000 0.3333  plane waves:    5370
 k-point  17 :   0.4000 0.0000 0.0000  plane waves:    5385
 k-point  18 :   0.0000 0.4000 0.0000  plane waves:    5385
 k-point  19 :   0.0000 0.0000 0.4000  plane waves:    5385
 k-point  20 :   0.4667 0.0000-0.0000  plane waves:    5372
 k-point  21 :  -0.0000 0.4667-0.0000  plane waves:    5372
 k-point  22 :   0.0000 0.0000 0.4667  plane waves:    5372
 k-point  23 :   0.0667 0.0667-0.0000  plane waves:    5377
 k-point  24 :  -0.0667-0.0000-0.0667  plane waves:    5377
 k-point  25 :  -0.0000 0.0667 0.0667  plane waves:    5377
 k-point  26 :   0.1333 0.0667-0.0000  plane waves:    5381
 k-point  27 :  -0.1333-0.0000-0.0667  plane waves:    5381
 k-point  28 :   0.0000 0.1333 0.0667  plane waves:    5381
 k-point  29 :  -0.0667-0.1333-0.0000  plane waves:    5381
 k-point  30 :   0.0667 0.0000 0.1333  plane waves:    5381
 k-point  31 :   0.0000-0.0667-0.1333  plane waves:    5381
 k-point  32 :   0.2000 0.0667-0.0000  plane waves:    5365
 k-point  33 :  -0.2000 0.0000-0.0667  plane waves:    5365
 k-point  34 :   0.0000 0.2000 0.0667  plane waves:    5365
 k-point  35 :  -0.0667-0.2000 0.0000  plane waves:    5365
 k-point  36 :   0.0667 0.0000 0.2000  plane waves:    5365
 k-point  37 :   0.0000-0.0667-0.2000  plane waves:    5365
 k-point  38 :   0.2667 0.0667-0.0000  plane waves:    5347
 k-point  39 :  -0.2667-0.0000-0.0667  plane waves:    5347
 k-point  40 :  -0.0000 0.2667 0.0667  plane waves:    5347
 k-point  41 :  -0.0667-0.2667 0.0000  plane waves:    5347
 k-point  42 :   0.0667 0.0000 0.2667  plane waves:    5347
 k-point  43 :   0.0000-0.0667-0.2667  plane waves:    5347
 k-point  44 :   0.3333 0.0667-0.0000  plane waves:    5358
 k-point  45 :  -0.3333 0.0000-0.0667  plane waves:    5358
 k-point  46 :  -0.0000 0.3333 0.0667  plane waves:    5358
 k-point  47 :  -0.0667-0.3333-0.0000  plane waves:    5358
 k-point  48 :   0.0667 0.0000 0.3333  plane waves:    5358
 k-point  49 :   0.0000-0.0667-0.3333  plane waves:    5358
 k-point  50 :   0.4000 0.0667 0.0000  plane waves:    5373
 k-point  51 :  -0.4000-0.0000-0.0667  plane waves:    5373
 k-point  52 :  -0.0000 0.4000 0.0667  plane waves:    5373
 k-point  53 :  -0.0667-0.4000-0.0000  plane waves:    5373
 k-point  54 :   0.0667 0.0000 0.4000  plane waves:    5373
 k-point  55 :   0.0000-0.0667-0.4000  plane waves:    5373
 k-point  56 :   0.4667 0.0667 0.0000  plane waves:    5372
 k-point  57 :  -0.4667 0.0000-0.0667  plane waves:    5372
 k-point  58 :  -0.0000 0.4667 0.0667  plane waves:    5372
 k-point  59 :  -0.0667-0.4667 0.0000  plane waves:    5372
 k-point  60 :   0.0667 0.0000 0.4667  plane waves:    5372
[...]
 k-point *** :   0.4667 0.4000-0.4667  plane waves:    5384
 k-point *** :  -0.4000-0.4667 0.4667  plane waves:    5384
 k-point *** :  -0.4000 0.4667 0.4000  plane waves:    5362
 k-point *** :   0.4000-0.4000-0.4667  plane waves:    5362
 k-point *** :   0.4000-0.4000 0.4667  plane waves:    5362
 k-point *** :  -0.4667 0.4000-0.4000  plane waves:    5362
 k-point *** :   0.4667 0.4000-0.4000  plane waves:    5362
 k-point *** :  -0.4000-0.4667 0.4000  plane waves:    5362
 k-point *** :  -0.4667-0.4667 0.4000  plane waves:    5382
 k-point *** :   0.4667-0.4000 0.4667  plane waves:    5382
 k-point *** :   0.4000-0.4667-0.4667  plane waves:    5382
 k-point *** :   0.4667 0.4667 0.4667  plane waves:    5383
 k-point *** :  -0.4667 0.4667 0.4667  plane waves:    5401
 k-point *** :   0.4667-0.4667 0.4667  plane waves:    5401
 k-point *** :   0.4667 0.4667-0.4667  plane waves:    5401

 maximum and minimum number of plane-waves per node :       654      565

 maximum number of plane-waves:      5401
 maximum index in each direction:
   IXMAX=   25   IYMAX=   25   IZMAX=   25
   IXMIN=  -25   IYMIN=  -25   IZMIN=  -25

 parallel 3D FFT for wavefunctions:
    minimum data exchange during FFTs selected (reduces bandwidth)
 parallel 3D FFT for charge:
    minimum data exchange during FFTs selected (reduces bandwidth)

 Broyden mixing: mesh for mixing (old mesh)
   NGX = 49   NGY = 49   NGZ = 49
  (NGX  =200   NGY  =200   NGZ  =200)
  gives a total of 117649 points

 initial charge density was supplied:
 charge density of overlapping atoms calculated
 number of electron      62.0000000 magnetization
 keeping initial charge density in first step

 Maximum index for augmentation-charges        68054 (set IRDMAX)

 First call to EWALD:  gamma=   0.326
 Maximum number of real-space cells 4x 4x 4
 Maximum number of reciprocal cells 6x 6x 6

--------------------------------------- Iteration      1(   1)  ---------------------------------------

 eigenvalue-minimisations  :135088
 total energy-change (2. order) : 0.6303232E+03  (-0.3040635E+04)
 number of electron      62.0000000 magnetization
 augmentation part       62.0000000 magnetization

 Free energy of the ion-electron system (eV)
  alpha Z        PSCENC =       143.99320331
  Ewald energy   TEWEN  =     -4030.16194519
  -Hartree energ DENC   =     -1945.57606585
  -exchange      EXHF   =         0.00000000
  -V(xc)+E(xc)   XCENC  =       189.55816618
  PAW double counting   =      5087.04612586    -5233.23548032
  entropy T*S    EENTRO =        -0.00185856
  eigenvalues    EBANDS =       408.92165652
  atomic energy  EATOM  =      6009.77936416
  Solvation  Ediel_sol  =         0.00000000
  free energy    TOTEN  =       630.32316611 eV

  energy without entropy =      630.32502467  energy(sigma->0) =      630.32409539

[...]

 eigenvalue-minimisations  :135408
 total energy-change (2. order) :-0.5618324E+03  (-0.5380199E+03)
 number of electron      62.0000000 magnetization
 augmentation part       62.0000000 magnetization

[...]

 Broyden mixing:
  rms(total) = 0.13209E+01    rms(broyden)= 0.13209E+01
  rms(prec ) = 0.14399E+01
  weight for this iteration     100.00

[...]

 eigenvalues of (default mixing * dielectric matrix)
  average eigenvalue GAMMA=   2.1950
  2.1950

[...]

 eigenvalue-minimisations  :194608
 total energy-change (2. order) : 0.3820650E-04  (-0.4088953E-04)
 number of electron      62.0000001 magnetization
 augmentation part       18.9106386 magnetization

[...]

 Broyden mixing:
  rms(total) = 0.13568E-03    rms(broyden)= 0.13568E-03
  rms(prec ) = 0.13750E-03
  weight for this iteration     100.00

 eigenvalues of (default mixing * dielectric matrix)
  average eigenvalue GAMMA=   1.4630
  3.1475  2.4163  2.2744  2.2744  0.9658  0.9658  1.1003  1.1003  1.0762  1.0762
  1.0220  0.7901  0.8098

[...]

--------------------------------------- Iteration      1(  19)  ---------------------------------------

 eigenvalue-minimisations  :102184
 total energy-change (2. order) :-0.9124960E-08  (-0.8407982E-09)
 number of electron      62.0000001 magnetization
 augmentation part       18.9101953 magnetization

 Free energy of the ion-electron system (eV)
  alpha Z        PSCENC =       143.99320331
  Ewald energy   TEWEN  =     -4030.16194519
  -Hartree energ DENC   =     -1933.29262437
  -exchange      EXHF   =         0.00000000
  -V(xc)+E(xc)   XCENC  =       190.70142950
  PAW double counting   =      8123.09788225    -8268.37465791
  entropy T*S    EENTRO =        -0.00000021
  eigenvalues    EBANDS =      -262.41232210
  atomic energy  EATOM  =      6009.77936416
  Solvation  Ediel_sol  =         0.00000000
  free energy    TOTEN  =       -26.66967055 eV

  energy without entropy =      -26.66967035  energy(sigma->0) =      -26.66967045

 average (electrostatic) potential at core
  the test charge radii are     0.9521  1.0774  0.9698
  (the norm of the test charge is              1.0000)
       1 -33.7547       2 -97.0640       3 -97.5516       4 -85.6710       5 -87.8188
       6 -87.0462       7 -87.2561

 E-fermi :   4.5281     XC(G=0):  -9.3724     alpha+bet : -9.9918

 Fermi energy:         4.5281070281

 k-point     1 :       0.0000    0.0000    0.0000
  band No.  band energies     occupation
      1     -11.1169      2.00000
      2     -10.9223      2.00000
      3     -10.9223      2.00000
      4     -10.7482      2.00000
      5     -10.7482      2.00000
      6     -10.3904      2.00000
      7     -10.3904      2.00000
      8     -10.3782      2.00000
      9     -10.2486      2.00000
     10     -10.2486      2.00000
     11      -9.8144      2.00000
     12      -9.2168      2.00000
     13      -8.2782      2.00000
     14      -7.4851      2.00000
     15      -2.1130      2.00000
     16      -1.6643      2.00000
     17      -1.6643      2.00000
     18      -1.4327      2.00000
     19      -1.2246      2.00000
     20      -1.2246      2.00000
     21       0.3161      2.00000
     22       1.3240      2.00000
     23       1.9351      2.00000
     24       1.9351      2.00000
     25       2.5937      2.00000
     26       2.5937      2.00000
     27       2.8663      2.00000
     28       2.8663      2.00000
     29       3.7836      2.00000
     30       4.3893      1.99991
     31       4.3893      1.99991
     32       4.6348      0.00255
     33       6.1426      0.00000
     34       7.0600      0.00000
     35       7.7448      0.00000
     36       8.8017      0.00000
     37       8.8017      0.00000
     38       8.8940      0.00000
     39       9.5458      0.00000
     40       9.5458      0.00000

[...]

 k-point  1688 :       0.4667    0.4667   -0.4667
  band No.  band energies     occupation
      1     -11.1223      2.00000
      2     -10.9340      2.00000
      3     -10.9182      2.00000
      4     -10.7523      2.00000
      5     -10.7480      2.00000
      6     -10.4190      2.00000
      7     -10.3869      2.00000
      8     -10.3614      2.00000
      9     -10.2526      2.00000
     10     -10.2481      2.00000
     11      -9.7526      2.00000
     12      -9.2076      2.00000
     13      -8.1928      2.00000
     14      -7.4927      2.00000
     15      -2.1415      2.00000
     16      -1.6641      2.00000
     17      -1.6549      2.00000
     18      -1.2352      2.00000
     19      -1.2248      2.00000
     20      -1.1834      2.00000
     21      -0.2056      2.00000
     22       1.6470      2.00000
     23       1.8770      2.00000
     24       1.9967      2.00000
     25       2.2513      2.00000
     26       2.4837      2.00000
     27       2.7164      2.00000
     28       2.9098      2.00000
     29       3.2860      2.00000
     30       4.1364      2.00000
     31       4.3267      2.00000
     32       5.4297      0.00000
     33       6.0587      0.00000
     34       7.3480      0.00000
     35       7.7546      0.00000
     36       8.5208      0.00000
     37       8.9007      0.00000
     38       9.0094      0.00000
     39       9.5698      0.00000
     40       9.6092      0.00000

 soft charge-density along one line, spin component           1
         0         1         2         3         4         5         6         7         8         9
 total charge-density along one line

------------------------ aborting loop because EDIFF is reached ----------------------------------------

         DFTD3 V3.0 Rev 1
 IVDW         = 11
 DF pbe
 parameters
 VDW_S6       =    1.0000
 VDW_S8       =    0.7220
 VDW_SR       =    1.2170
 rs18     =    1.0000
 alpha6   =   14.0000
 alpha8   =   16.0000
 k1-k3    =   16.0000    1.3333   -4.0000
 VDW_RADIUS   =   50.2022 A
 VDW_CNRADIUS =   21.1671 A
 Edisp (eV)   -1.52345

 E6    (eV) :    -0.6739
 E8    (eV) :    -0.8495
 % E8        : 55.76

  FORCE on cell =-STRESS in cart. coord.  units (eV):
  Direction    XX          YY          ZZ          XY          YZ          ZX
  Alpha Z   143.99320   143.99320   143.99320
  Ewald   -1172.42113 -1172.42112 -1685.32424     0.00001    -0.00001     0.00002
  Hartree   767.79471   767.79471   397.70432     0.00001    -0.00000     0.00001
  E(xc)    -289.38963  -289.38963  -289.56258     0.00000    -0.00000     0.00000
  Local    -664.89979  -664.89979   212.25860    -0.00002     0.00001    -0.00002
  n-local   333.72411   333.72411   330.94261     0.00000    -0.00000     0.00000
  augment   290.78178   290.78178   290.87934    -0.00000     0.00000     0.00000
  Kinetic   592.21831   592.21831   600.90700    -0.00000     0.00000    -0.00000
  Fock        0.00000     0.00000     0.00000     0.00000     0.00000     0.00000
  vdW        -1.80813    -1.80813    -1.77785     0.00000     0.00000     0.00000
  Total      -0.00655    -0.00655     0.02041     0.00000    -0.00000    -0.00000
  in kB      -0.06521    -0.06521     0.20317     0.00000    -0.00000    -0.00000

 VOLUME and BASIS-vectors are now :
  energy-cutoff  :      600.00
  volume of cell :      160.92
      direct lattice vectors                 reciprocal lattice vectors
     1.946732572  1.123946533 12.257705653     0.256840619  0.148287000  0.027193779
    -1.946732567  1.123946519 12.257705620    -0.256840621  0.148287000  0.027193779
     0.000000002 -2.247893213 12.257705630     0.000000001 -0.296574000  0.027193777

  length of vectors
    12.462117452 12.462117418 12.462117445     0.297818132  0.297818133  0.297818131

 FORCES acting on ions
    electron-ion (+dipol)            ewald-force                    non-local-force                 convergence-correction
   0.350E-05 -.228E-05 0.102E+03   -.374E-05 0.229E-05 -.105E+03   0.913E-08 -.183E-06 0.254E+01   0.165E-06 0.159E-06 0.261E-03
   -.988E-06 0.105E-05 -.517E+02   0.944E-06 -.875E-06 0.490E+02   0.515E-07 0.729E-07 0.276E+01   0.653E-07 -.283E-06 0.661E-03
   -.286E-05 0.249E-06 -.624E+02   0.266E-05 -.252E-06 0.616E+02   0.170E-06 -.565E-07 0.825E+00   0.933E-07 0.458E-07 -.494E-03
   -.139E-05 -.265E-06 0.123E+03   0.258E-05 0.122E-05 -.127E+03   -.503E-06 -.610E-06 0.331E+01   -.407E-06 -.303E-06 0.501E-04
   0.302E-05 0.163E-05 -.115E+03   -.218E-05 -.161E-05 0.122E+03   -.622E-06 0.308E-07 -.672E+01   -.303E-06 -.336E-07 -.184E-04
   -.109E-05 0.262E-05 0.697E+02   0.204E-05 -.264E-05 -.718E+02   -.692E-06 0.888E-07 0.219E+01   -.319E-06 -.877E-08 -.196E-03
   0.123E-05 -.233E-05 -.735E+02   -.231E-05 0.186E-05 0.704E+02   0.687E-06 0.224E-06 0.303E+01   0.371E-06 0.183E-06 0.298E-03
   0.141E-05 0.682E-06 -.795E+01   -.338E-14 -.364E-14 0.284E-13   -.900E-06 -.434E-06 0.795E+01   -.335E-06 -.241E-06 0.562E-03

 POSITION                                       TOTAL-FORCE (eV/Angst)
     -0.00000      0.00000     14.40548        -0.000000     -0.000000      0.001093
      0.00000     -0.00000      5.94935         0.000000     -0.000000      0.002227
      0.00000     -0.00000     34.46118         0.000000     -0.000000      0.001968
     -0.00000      0.00000      1.61146         0.000000      0.000000      0.000443
      0.00000     -0.00000     11.01474        -0.000000      0.000000      0.002625
      0.00000     -0.00000     16.95299        -0.000000      0.000000     -0.002659
     -0.00000     -0.00000     32.00642        -0.000000     -0.000000     -0.005697
    total drift:                                0.000000      0.000000      0.000042

  FREE ENERGIE OF THE ION-ELECTRON SYSTEM (eV)
  free  energy   TOTEN  =       -28.19311915 eV

  energy  without entropy=      -28.19311894  energy(sigma->0) =      -28.19311905