 vasp.6.3.2 27Jun22 (build Sep 20 2022 16:10:27) complex

 executed on             LinuxIFC date 2024.10.26  19:53:56

 INCAR:
   SYSTEM = PDOS-Calculation-from-SCF
   ISTART = 0
   ICHARG = 11
   ENCUT = 360.0
   ISMEAR = -5
   SIGMA = 0.05
   LREAL = .FALSE.
   PREC = Accurate
   EDIFF = 1E-07
   NELM = 100
   ALGO = Normal
   SYMPREC = 1E-8
   NCORE = 9
   ISPIN = 1
   LORBIT = 11
   EMIN = -10
   EMAX = 10
   NEDOS = 5000
   LWAVE = .TRUE.
   LCHARG = .TRUE.
   LVTOT = .TRUE.
   ADDGRID = .TRUE.

 POTCAR:    PAW_PBE Zn 06Sep2000
 POTCAR:    PAW_PBE Al 04Jan2001
 POTCAR:    PAW_PBE S 06Sep2000
 WARNING: For LVTOT=.TRUE., VASP.5.x writes the TOTAL local potential to the
     file LOCPOT. If you want only the Hartree contributions, use LVHAR=.TRUE.
     instead.

   TITEL  = PAW_PBE Zn 06Sep2000
   POMASS =   65.390; ZVAL   =   12.000    mass and valenz
   ENMAX  =  276.723; ENMIN  =  207.542 eV

   TITEL  = PAW_PBE Al 04Jan2001
   POMASS =   26.981; ZVAL   =    3.000    mass and valenz
   ENMAX  =  240.300; ENMIN  =  180.225 eV

   TITEL  = PAW_PBE S 06Sep2000
   POMASS =   32.066; ZVAL   =    6.000    mass and valenz
   ENMAX  =  258.689; ENMIN  =  194.016 eV

  PAW_PBE Zn 06Sep2000                  :
  PAW_PBE Al 04Jan2001                  :
  PAW_PBE S 06Sep2000                   :

 POSCAR: zinc dialuminium sulfide
  positions in direct lattice
  velocities in cartesian coordinates
 exchange correlation table for  LEXCH =        8
   RHO(1)=    0.500       N(1)  =     2000
   RHO(2)=  100.500       N(2)  =     4000

 ion  position               nearest neighbor table
   1  0.125  0.125  0.125-  25 2.33  54 2.33  46 2.33  43 2.33
   2  0.875  0.875  0.875-  53 2.33  45 2.33  44 2.33  26 2.33
   3  0.625  0.125  0.625-  48 2.33  38 2.33  27 2.33  49 2.33
   4  0.375  0.875  0.375-  37 2.33  50 2.33  28 2.33  47 2.33
   5  0.125  0.625  0.625-  51 2.33  39 2.33  29 2.33  34 2.33
   6  0.875  0.375  0.375-  40 2.33  30 2.33  33 2.33  52 2.33
   7  0.625  0.625  0.125-  41 2.33  55 2.33  31 2.33  36 2.33
   8  0.375  0.375  0.875-  56 2.33  32 2.33  35 2.33  42 2.33
   9  0.500  0.500  0.500-  42 2.41  52 2.41  41 2.41  51 2.41  47 2.41  48 2.41
  10  0.250  0.750  1.000-  36 2.41  50 2.41  44 2.41  54 2.41  39 2.41  32 2.41
  11  0.750  0.250  1.000-  31 2.41  53 2.41  40 2.41  49 2.41  43 2.41  35 2.41
  12  0.750  1.000  0.250-  38 2.41  40 2.41  53 2.41  46 2.41  55 2.41  28 2.41
  13  0.250  1.000  0.750-  27 2.41  56 2.41  45 2.41  54 2.41  39 2.41  37 2.41
  14  1.000  0.250  0.750-  34 2.41  45 2.41  56 2.41  49 2.41  43 2.41  30 2.41
  15  1.000  0.750  0.250-  29 2.41  50 2.41  44 2.41  55 2.41  46 2.41  33 2.41
  16  0.500  1.000  1.000-  54 2.41  35 2.41  28 2.41  36 2.41  27 2.41  53 2.41
  17  0.250  0.250  0.500-  30 2.41  37 2.41  25 2.41  48 2.41  51 2.41  56 2.41
  18  0.750  0.750  0.500-  55 2.41  52 2.41  26 2.41  47 2.41  38 2.41  29 2.41
  19  0.750  0.500  0.750-  49 2.41  42 2.41  52 2.41  26 2.41  34 2.41  31 2.41
  20  0.250  0.500  0.250-  32 2.41  33 2.41  41 2.41  51 2.41  25 2.41  50 2.41
  21  1.000  0.500  1.000-  43 2.41  32 2.41  33 2.41  34 2.41  31 2.41  44 2.41
  22  0.500  0.250  0.250-  28 2.41  35 2.41  41 2.41  25 2.41  48 2.41  40 2.41
  23  0.500  0.750  0.750-  39 2.41  26 2.41  47 2.41  42 2.41  27 2.41  36 2.41
  24  1.000  1.000  0.500-  46 2.41  30 2.41  37 2.41  38 2.41  29 2.41  45 2.41
  25  0.259  0.259  0.259-   1 2.33  22 2.41  17 2.41  20 2.41
  26  0.741  0.741  0.741-   2 2.33  23 2.41  18 2.41  19 2.41
  27  0.491  0.991  0.759-   3 2.33  13 2.41  23 2.41  16 2.41
  28  0.509  0.009  0.241-   4 2.33  22 2.41  16 2.41  12 2.41
  29  0.991  0.759  0.491-   5 2.33  15 2.41  24 2.41  18 2.41
  30  0.009  0.241  0.509-   6 2.33  17 2.41  24 2.41  14 2.41
  31  0.759  0.491  0.991-   7 2.33  11 2.41  21 2.41  19 2.41
  32  0.241  0.509  0.009-   8 2.33  21 2.41  20 2.41  10 2.41
  33  0.009  0.509  0.241-   6 2.33  21 2.41  20 2.41  15 2.41
  34  0.991  0.491  0.759-   5 2.33  14 2.41  21 2.41  19 2.41
  35  0.509  0.241  0.009-   8 2.33  22 2.41  16 2.41  11 2.41
  36  0.491  0.759  0.991-   7 2.33  10 2.41  16 2.41  23 2.41
  37  0.241  0.009  0.509-   4 2.33  17 2.41  24 2.41  13 2.41
  38  0.759  0.991  0.491-   3 2.33  12 2.41  24 2.41  18 2.41
  39  0.259  0.759  0.759-   5 2.33  23 2.41  10 2.41  13 2.41
  40  0.741  0.241  0.241-   6 2.33  11 2.41  12 2.41  22 2.41
  41  0.491  0.491  0.259-   7 2.33  22 2.41  20 2.41   9 2.41
  42  0.509  0.509  0.741-   8 2.33   9 2.41  23 2.41  19 2.41
  43  0.991  0.259  0.991-   1 2.33  21 2.41  14 2.41  11 2.41
  44  0.009  0.741  0.009-   2 2.33  15 2.41  10 2.41  21 2.41
  45  0.009  0.009  0.741-   2 2.33  14 2.41  13 2.41  24 2.41
  46  0.991  0.991  0.259-   1 2.33  24 2.41  15 2.41  12 2.41
  47  0.509  0.741  0.509-   4 2.33  23 2.41   9 2.41  18 2.41
  48  0.491  0.259  0.491-   3 2.33  22 2.41  17 2.41   9 2.41
  49  0.759  0.259  0.759-   3 2.33  19 2.41  14 2.41  11 2.41
  50  0.241  0.741  0.241-   4 2.33  15 2.41  10 2.41  20 2.41
  51  0.259  0.491  0.491-   5 2.33  20 2.41   9 2.41  17 2.41
  52  0.741  0.509  0.509-   6 2.33   9 2.41  18 2.41  19 2.41
  53  0.741  0.009  0.009-   2 2.33  11 2.41  12 2.41  16 2.41
  54  0.259  0.991  0.991-   1 2.33  16 2.41  13 2.41  10 2.41
  55  0.759  0.759  0.259-   7 2.33  18 2.41  15 2.41  12 2.41
  56  0.241  0.241  0.741-   8 2.33  14 2.41  13 2.41  17 2.41

  LATTYP: Found a simple cubic cell.
 ALAT       =    10.0089998245

  Lattice vectors:

 A1 = (  10.0089998245,   0.0000000000,   0.0000000000)
 A2 = (   0.0000000000,  10.0089998245,   0.0000000000)
 A3 = (   0.0000000000,   0.0000000000,  10.0089998245)

Analysis of symmetry for initial positions (statically):
 Subroutine PRICEL returns:
 Original cell was already a primitive cell.

 Routine SETGRP: Setting up the symmetry group for a
 simple cubic supercell.

 Subroutine GETGRP returns: Found  6 space group operations
 (whereof  6 operations were pure point group operations)
 out of a pool of 48 trial point group operations.

The static configuration has the point symmetry C_3v.

Analysis of symmetry for dynamics (positions and initial velocities):
 Subroutine PRICEL returns:
 Original cell was already a primitive cell.

 Routine SETGRP: Setting up the symmetry group for a
 simple cubic supercell.

 Subroutine GETGRP returns: Found  6 space group operations
 (whereof  6 operations were pure point group operations)
 out of a pool of 48 trial point group operations.

The dynamic configuration has the point symmetry C_3v.

 Subroutine INISYM returns: Found  6 space group operations
 (whereof  6 operations are pure point group operations),
 and found     1 'primitive' translations

                                     Primitive cell

  volume of cell :    1002.7024

  direct lattice vectors                    reciprocal lattice vectors
    10.008999825  0.000000000  0.000000000     0.099910083  0.000000000  0.000000000
     0.000000000 10.008999825  0.000000000     0.000000000  0.099910083  0.000000000
     0.000000000  0.000000000 10.008999825     0.000000000  0.000000000  0.099910083

  length of vectors
    10.008999825 10.008999825 10.008999825     0.099910083  0.099910083  0.099910083

  position of ions in fractional coordinates (direct lattice)
     0.125000006  0.125000006  0.125000006
     0.875000006  0.875000006  0.875000006
     0.624999994  0.125000006  0.624999994
     0.374999994  0.875000006  0.374999994
     0.125000006  0.624999994  0.624999994
     0.875000006  0.374999994  0.374999994
     0.624999994  0.624999994  0.125000006
     0.374999994  0.374999994  0.875000006
     0.500000002  0.500000002  0.500000002
     0.250000000  0.750000000  0.999999998
     0.750000000  0.250000000  0.999999998
     0.750000000  0.999999999  0.249999999
     0.250000000  0.999999999  0.750000000
     0.999999999  0.250000000  0.750000000
     0.999999999  0.750000000  0.250000000
     0.500000002  0.999999999  0.999999999
     0.249999999  0.250000000  0.500000002
     0.750000000  0.750000000  0.500000001
     0.750000000  0.500000001  0.750000000
     0.250000000  0.500000002  0.250000000
     0.999999999  0.500000001  0.999999998
     0.500000002  0.250000000  0.250000000
     0.500000001  0.750000000  0.750000000
     0.999999999  0.999999999  0.500000002
     0.259328818  0.259328816  0.259328817
     0.740671187  0.740671191  0.740671189
     0.490671179  0.990671189  0.759328808
     0.509328803  0.009328822  0.240671179
     0.990671193  0.759328807  0.490671176
     0.009328820  0.240671179  0.509328806
     0.759328808  0.490671178  0.990671194
     0.240671178  0.509328803  0.009328819
     0.009328819  0.509328806  0.240671179
     0.990671193  0.490671177  0.759328809
     0.509328805  0.240671179  0.009328821
     0.490671179  0.759328809  0.990671190
     0.240671180  0.009328819  0.509328804
     0.759328807  0.990671192  0.490671178
     0.259328825  0.759328806  0.759328807
     0.740671195  0.240671181  0.240671180
     0.490671185  0.490671184  0.259328816
     0.509328812  0.509328814  0.740671186
     0.990671191  0.259328826  0.990671189
     0.009328817  0.740671195  0.009328820
     0.009328817  0.009328820  0.740671197
     0.990671192  0.990671190  0.259328826
     0.509328812  0.740671189  0.509328815
     0.490671185  0.259328815  0.490671184
     0.759328810  0.259328822  0.759328808
     0.240671177  0.740671197  0.240671181
     0.259328816  0.490671186  0.490671185
     0.740671187  0.509328812  0.509328812
     0.740671196  0.009328818  0.009328816
     0.259328826  0.990671192  0.990671192
     0.759328809  0.759328805  0.259328822
     0.240671179  0.240671181  0.740671196

  ion indices of the primitive-cell ions
   primitive index   ion index
                 1           1
                 2           2
                 3           3
                 4           4
                 5           5
                 6           6
                 7           7
                 8           8
                 9           9
                10          10
                11          11
                12          12
                13          13
                14          14
                15          15
                16          16
                17          17
                18          18
                19          19
                20          20
                21          21
                22          22
                23          23
                24          24
                25          25
                26          26
                27          27
                28          28
                29          29
                30          30
                31          31
                32          32
                33          33
                34          34
                35          35
                36          36
                37          37
                38          38
                39          39
                40          40
                41          41
                42          42
                43          43
                44          44
                45          45
[...]

  FORCE on cell =-STRESS in cart. coord.  units (eV):
  Direction    XX          YY          ZZ          XY          YZ          ZX
  Alpha Z   617.34891   617.34891   617.34891
  Ewald   -5630.27484 -5630.27485 -5630.27484    -0.00000    -0.00002     0.00001
  Hartree  2348.80536  2348.80536  2348.80536    -0.00001    -0.00001    -0.00001
  E(xc)   -1403.54985 -1403.54985 -1403.54985    -0.00000    -0.00000    -0.00000
  Local   -1474.39622 -1474.39621 -1474.39621     0.00001     0.00003    -0.00000
  n-local  2352.23076  2352.53115  2352.13568     0.67323    -1.43811     0.76488
  augment  -238.95503  -238.95503  -238.95503     0.00000     0.00000    -0.00000
  Kinetic  3441.37943  3442.00505  3439.86508     1.18606    -2.53700     1.35095
  Fock        0.00000     0.00000     0.00000     0.00000     0.00000     0.00000
  Total      12.36072    12.36072    12.36072    -0.00000    -0.00000    -0.00000
  in kB      19.75068    19.75068    19.75068    -0.00000    -0.00000    -0.00000

 VOLUME and BASIS-vectors are now :
  energy-cutoff  :      360.00
  volume of cell :     1002.70
      direct lattice vectors                 reciprocal lattice vectors
    10.008999825  0.000000000  0.000000000     0.099910083  0.000000000  0.000000000
     0.000000000 10.008999825  0.000000000     0.000000000  0.099910083  0.000000000
     0.000000000  0.000000000 10.008999825     0.000000000  0.000000000  0.099910083

  length of vectors
    10.008999825 10.008999825 10.008999825     0.099910083  0.099910083  0.099910083

 FORCES acting on ions
    electron-ion (+dipol)            ewald-force                    non-local-force                 convergence-correction
   -.632E-04 -.624E-04 -.628E-04   -.382E-04 -.305E-04 -.337E-04   -.200E-03 -.200E-03 -.200E-03   0.297E-03 0.296E-03 0.309E-03
   -.729E-04 -.748E-04 -.741E-04   -.213E-04 -.355E-04 -.307E-04   -.202E-03 -.202E-03 -.202E-03   0.300E-03 0.323E-03 0.303E-03
   0.665E-04 -.690E-04 0.672E-04   0.259E-04 -.245E-04 0.318E-04   0.193E-03 -.201E-03 0.193E-03   -.294E-03 0.297E-03 -.293E-03
   0.640E-04 -.693E-04 0.623E-04   0.387E-04 -.356E-04 0.265E-04   0.198E-03 -.197E-03 0.198E-03   -.301E-03 0.310E-03 -.295E-03
   -.708E-04 0.671E-04 0.673E-04   -.369E-04 0.311E-04 0.331E-04   -.201E-03 0.193E-03 0.193E-03   0.308E-03 -.295E-03 -.295E-03
   -.676E-04 0.626E-04 0.629E-04   -.247E-04 0.294E-04 0.318E-04   -.197E-03 0.198E-03 0.198E-03   0.290E-03 -.300E-03 -.289E-03
   0.655E-04 0.672E-04 -.699E-04   0.195E-04 0.322E-04 -.305E-04   0.193E-03 0.193E-03 -.201E-03   -.291E-03 -.288E-03 0.310E-03
   0.638E-04 0.630E-04 -.686E-04   0.383E-04 0.320E-04 -.304E-04   0.198E-03 0.198E-03 -.197E-03   -.296E-03 -.303E-03 0.298E-03
   -.641E-05 -.652E-05 -.665E-05   0.505E-05 0.489E-05 0.465E-05   0.357E-05 0.357E-05 0.357E-05   -.488E-05 -.465E-05 -.461E-05
   0.155E-05 0.116E-05 0.111E-04   -.301E-05 -.342E-05 -.121E-04   0.952E-06 0.778E-06 -.262E-05   0.696E-07 0.784E-06 0.498E-05
   0.901E-06 0.106E-05 0.111E-04   -.323E-05 -.281E-05 -.117E-04   0.778E-06 0.952E-06 -.262E-05   0.829E-06 0.118E-06 0.480E-05
   0.100E-05 0.113E-04 0.105E-05   -.299E-05 -.128E-04 -.309E-05   0.778E-06 -.262E-05 0.952E-06   0.618E-06 0.516E-05 0.234E-06
   0.118E-05 0.112E-04 0.129E-05   -.359E-05 -.122E-04 -.313E-05   0.952E-06 -.262E-05 0.778E-06   0.789E-06 0.489E-05 0.532E-06
   0.113E-04 0.118E-05 0.928E-06   -.116E-04 -.299E-05 -.371E-05   -.262E-05 0.952E-06 0.778E-06   0.469E-05 0.270E-06 0.104E-05
   0.112E-04 0.138E-05 0.147E-05   -.128E-04 -.244E-05 -.298E-05   -.262E-05 0.778E-06 0.952E-06   0.523E-05 0.159E-06 0.173E-06
   -.159E-04 0.120E-04 0.120E-04   0.185E-04 -.123E-04 -.119E-04   0.298E-05 -.285E-05 -.285E-05   -.562E-05 0.471E-05 0.431E-05
   -.401E-05 -.360E-05 -.122E-04   0.377E-05 0.400E-05 0.120E-04   0.576E-06 0.576E-06 0.338E-05   0.175E-06 -.142E-06 -.480E-05
   -.350E-05 -.360E-05 -.109E-04   0.411E-05 0.373E-05 0.112E-04   0.622E-06 0.622E-06 0.342E-05   -.427E-06 -.126E-06 -.531E-05
   -.345E-05 -.109E-04 -.342E-05   0.366E-05 0.118E-04 0.404E-05   0.622E-06 0.342E-05 0.622E-06   -.176E-07 -.567E-05 -.172E-06
   -.341E-05 -.122E-04 -.369E-05   0.427E-05 0.122E-04 0.334E-05   0.576E-06 0.338E-05 0.576E-06   -.420E-06 -.478E-05 0.343E-06
   0.119E-04 -.161E-04 0.116E-04   -.124E-04 0.188E-04 -.124E-04   -.285E-05 0.298E-05 -.285E-05   0.466E-05 -.585E-05 0.495E-05
   -.122E-04 -.361E-05 -.385E-05   0.120E-04 0.419E-05 0.380E-05   0.338E-05 0.576E-06 0.576E-06   -.475E-05 -.219E-06 0.105E-06
   -.109E-04 -.353E-05 -.325E-05   0.112E-04 0.223E-05 0.405E-05   0.342E-05 0.622E-06 0.622E-06   -.536E-05 0.730E-06 -.481E-06
   0.120E-04 0.122E-04 -.159E-04   -.127E-04 -.131E-04 0.190E-04   -.285E-05 -.285E-05 0.298E-05   0.494E-05 0.491E-05 -.596E-05
   -.429E+02 -.429E+02 -.429E+02   0.441E+02 0.441E+02 0.441E+02   -.121E+01 -.121E+01 -.121E+01   -.813E-03 -.818E-03 -.817E-03
   0.429E+02 0.429E+02 0.429E+02   -.441E+02 -.441E+02 -.441E+02   0.121E+01 0.121E+01 0.121E+01   0.765E-03 0.775E-03 0.771E-03
   0.429E+02 0.429E+02 -.429E+02   -.441E+02 -.441E+02 0.441E+02   0.121E+01 0.121E+01 -.121E+01   0.775E-03 0.796E-03 -.783E-03
   -.429E+02 -.429E+02 0.429E+02   0.441E+02 0.441E+02 -.441E+02   -.121E+01 -.121E+01 0.121E+01   -.815E-03 -.781E-03 0.808E-03
   0.429E+02 -.429E+02 0.429E+02   -.441E+02 0.441E+02 -.441E+02   0.121E+01 -.121E+01 0.121E+01   0.804E-03 -.784E-03 0.767E-03
   -.429E+02 0.429E+02 -.429E+02   0.441E+02 -.441E+02 0.441E+02   -.121E+01 0.121E+01 -.121E+01   -.786E-03 0.808E-03 -.809E-03
   -.429E+02 0.429E+02 0.429E+02   0.441E+02 -.441E+02 -.441E+02   -.121E+01 0.121E+01 0.121E+01   -.780E-03 0.773E-03 0.806E-03
   0.429E+02 -.429E+02 -.429E+02   -.441E+02 0.441E+02 0.441E+02   0.121E+01 -.121E+01 -.121E+01   0.804E-03 -.814E-03 -.787E-03
   -.429E+02 -.429E+02 0.429E+02   0.441E+02 0.441E+02 -.441E+02   -.121E+01 -.121E+01 0.121E+01   -.787E-03 -.807E-03 0.806E-03
   0.429E+02 0.429E+02 -.429E+02   -.441E+02 -.441E+02 0.441E+02   0.121E+01 0.121E+01 -.121E+01   0.804E-03 0.768E-03 -.781E-03
   -.429E+02 0.429E+02 -.429E+02   0.441E+02 -.441E+02 0.441E+02   -.121E+01 0.121E+01 -.121E+01   -.812E-03 0.806E-03 -.783E-03
   0.429E+02 -.429E+02 0.429E+02   -.441E+02 0.441E+02 -.441E+02   0.121E+01 -.121E+01 0.121E+01   0.774E-03 -.780E-03 0.797E-03
   0.429E+02 -.429E+02 -.429E+02   -.441E+02 0.441E+02 0.441E+02   0.121E+01 -.121E+01 -.121E+01   0.810E-03 -.787E-03 -.815E-03
   -.429E+02 0.429E+02 0.429E+02   0.441E+02 -.441E+02 -.441E+02   -.121E+01 0.121E+01 0.121E+01   -.784E-03 0.803E-03 0.775E-03
   -.429E+02 -.429E+02 -.429E+02   0.441E+02 0.441E+02 0.441E+02   -.121E+01 -.121E+01 -.121E+01   -.787E-03 -.785E-03 -.785E-03
   0.429E+02 0.429E+02 0.429E+02   -.441E+02 -.441E+02 -.441E+02   0.121E+01 0.121E+01 0.121E+01   0.791E-03 0.807E-03 0.803E-03
   0.429E+02 0.429E+02 -.429E+02   -.441E+02 -.441E+02 0.441E+02   0.121E+01 0.121E+01 -.121E+01   0.798E-03 0.793E-03 -.812E-03
   -.429E+02 -.429E+02 0.429E+02   0.441E+02 0.441E+02 -.441E+02   -.121E+01 -.121E+01 0.121E+01   -.793E-03 -.788E-03 0.772E-03
   0.429E+02 -.429E+02 0.429E+02   -.441E+02 0.441E+02 -.441E+02   0.121E+01 -.121E+01 0.121E+01   0.802E-03 -.794E-03 0.798E-03
   -.429E+02 0.429E+02 -.429E+02   0.441E+02 -.441E+02 0.441E+02   -.121E+01 0.121E+01 -.121E+01   -.784E-03 0.796E-03 -.777E-03
   -.429E+02 -.429E+02 0.429E+02   0.441E+02 0.441E+02 -.441E+02   -.121E+01 -.121E+01 0.121E+01   -.786E-03 -.778E-03 0.799E-03
   0.429E+02 0.429E+02 -.429E+02   -.441E+02 -.441E+02 0.441E+02   0.121E+01 0.121E+01 -.121E+01   0.806E-03 0.799E-03 -.796E-03
   -.429E+02 0.429E+02 -.429E+02   0.441E+02 -.441E+02 0.441E+02   -.121E+01 0.121E+01 -.121E+01   -.793E-03 0.777E-03 -.786E-03
   0.429E+02 -.429E+02 0.429E+02   -.441E+02 0.441E+02 -.441E+02   0.121E+01 -.121E+01 0.121E+01   0.796E-03 -.814E-03 0.793E-03
   -.429E+02 -.429E+02 -.429E+02   0.441E+02 0.441E+02 0.441E+02   -.121E+01 -.121E+01 -.121E+01   -.778E-03 -.795E-03 -.782E-03
   0.429E+02 0.429E+02 0.429E+02   -.441E+02 -.441E+02 -.441E+02   0.121E+01 0.121E+01 0.121E+01   0.797E-03 0.797E-03 0.806E-03
   -.429E+02 0.429E+02 0.429E+02   0.441E+02 -.441E+02 -.441E+02   -.121E+01 0.121E+01 0.121E+01   -.813E-03 0.798E-03 0.797E-03
   0.429E+02 -.429E+02 -.429E+02   -.441E+02 0.441E+02 0.441E+02   0.121E+01 -.121E+01 -.121E+01   0.774E-03 -.792E-03 -.794E-03
   0.429E+02 -.429E+02 -.429E+02   -.441E+02 0.441E+02 0.441E+02   0.121E+01 -.121E+01 -.121E+01   0.797E-03 -.783E-03 -.787E-03
   -.429E+02 0.429E+02 0.429E+02   0.441E+02 -.441E+02 -.441E+02   -.121E+01 0.121E+01 0.121E+01   -.794E-03 0.804E-03 0.804E-03
   -.429E+02 -.429E+02 -.429E+02   0.441E+02 0.441E+02 0.441E+02   -.121E+01 -.121E+01 -.121E+01   -.778E-03 -.787E-03 -.794E-03
   0.429E+02 0.429E+02 0.429E+02   -.441E+02 -.441E+02 -.441E+02   0.121E+01 0.121E+01 0.121E+01   0.800E-03 0.805E-03 0.794E-03
   -.751E-04 -.669E-04 -.767E-04   -.107E-12 -.497E-13 -.249E-12   0.249E-04 0.249E-04 0.249E-04   0.285E-04 0.593E-04 0.582E-04

 POSITION                                       TOTAL-FORCE (eV/Angst)
      1.25113      1.25113      1.25113         0.000004      0.000004      0.000004
      8.75787      8.75787      8.75787         0.000004      0.000004      0.000004
      6.25562      1.25113      6.25562        -0.000004      0.000004     -0.000004
      3.75337      8.75787      3.75337        -0.000004      0.000004     -0.000004
      1.25113      6.25562      6.25562         0.000004     -0.000004     -0.000004
      8.75787      3.75337      3.75337         0.000004     -0.000004     -0.000004
      6.25562      6.25562      1.25113        -0.000004     -0.000004      0.000004
      3.75337      3.75337      8.75787        -0.000004     -0.000004      0.000004
      5.00450      5.00450      5.00450        -0.000003     -0.000003     -0.000003
      2.50225      7.50675     10.00900        -0.000001     -0.000001      0.000001
      7.50675      2.50225     10.00900        -0.000001     -0.000001      0.000001
      7.50675     10.00900      2.50225        -0.000001      0.000001     -0.000001
      2.50225     10.00900      7.50675        -0.000001      0.000001     -0.000001
     10.00900      2.50225      7.50675         0.000001     -0.000001     -0.000001
     10.00900      7.50675      2.50225         0.000001     -0.000001     -0.000001
      5.00450     10.00900     10.00900        -0.000000      0.000001      0.000001
      2.50225      2.50225      5.00450         0.000001      0.000001     -0.000002
      7.50675      7.50675      5.00450         0.000001      0.000001     -0.000002
      7.50675      5.00450      7.50675         0.000001     -0.000002      0.000001
      2.50225      5.00450      2.50225         0.000001     -0.000002      0.000001
     10.00900      5.00450     10.00900         0.000001     -0.000000      0.000001
      5.00450      2.50225      2.50225        -0.000002      0.000001      0.000001
      5.00450      7.50675      7.50675        -0.000002      0.000001      0.000001
     10.00900     10.00900      5.00450         0.000001      0.000001     -0.000000
      2.59562      2.59562      2.59562         0.022349      0.022349      0.022349
      7.41338      7.41338      7.41338        -0.022346     -0.022346     -0.022346
      4.91113      9.91563      7.60012        -0.022346     -0.022348      0.022347
      5.09787      0.09337      2.40888         0.022349      0.022347     -0.022348
      9.91563      7.60012      4.91113        -0.022348      0.022347     -0.022346
      0.09337      2.40888      5.09787         0.022347     -0.022348      0.022349
      7.60012      4.91113      9.91563         0.022347     -0.022346     -0.022348
      2.40888      5.09787      0.09337        -0.022348      0.022349      0.022347
      0.09337      5.09787      2.40888         0.022347      0.022349     -0.022348
      9.91563      4.91113      7.60012        -0.022348     -0.022346      0.022347
      5.09787      2.40888      0.09337         0.022349     -0.022348      0.022347
      4.91113      7.60012      9.91563        -0.022346      0.022347     -0.022348
      2.40888      0.09337      5.09787        -0.022348      0.022347      0.022349
      7.60012      9.91563      4.91113         0.022347     -0.022348     -0.022346
      2.59562      7.60012      7.60012         0.022347      0.022347      0.022347
      7.41338      2.40888      2.40888        -0.022348     -0.022348     -0.022348
      4.91113      4.91113      2.59562        -0.022348     -0.022348      0.022349
      5.09787      5.09787      7.41338         0.022347      0.022347     -0.022346
      9.91563      2.59562      9.91563        -0.022349      0.022347     -0.022349
      0.09337      7.41338      0.09337         0.022347     -0.022349      0.022347
      0.09337      0.09337      7.41338         0.022347      0.022347     -0.022349
      9.91563      9.91563      2.59562        -0.022349     -0.022349      0.022347
      5.09787      7.41338      5.09787         0.022347     -0.022346      0.022347
      4.91113      2.59562      4.91113        -0.022348      0.022349     -0.022348
      7.60012      2.59562      7.60012         0.022347      0.022347      0.022347
      2.40888      7.41338      2.40888        -0.022348     -0.022348     -0.022348
      2.59562      4.91113      4.91113         0.022349     -0.022348     -0.022348
      7.41338      5.09787      5.09787        -0.022346      0.022347      0.022347
      7.41338      0.09337      0.09337        -0.022349      0.022347      0.022347
      2.59562      9.91563      9.91563         0.022347     -0.022349     -0.022349
      7.60012      7.60012      2.59562         0.022347      0.022347      0.022347
      2.40888      2.40888      7.41338        -0.022348     -0.022348     -0.022348
    total drift:                               -0.000022      0.000017      0.000006

  FREE ENERGIE OF THE ION-ELECTRON SYSTEM (eV)
  free  energy   TOTEN  =      -257.58792517 eV

  energy  without entropy=     -257.58792517  energy(sigma->0) =     -257.58792517

 writing wavefunctions

 total charge

# of ion       s       p       d       tot
    1        0.518   0.476   9.794  10.788
    2        0.518   0.476   9.794  10.788
    3        0.518   0.476   9.794  10.788
    4        0.518   0.476   9.794  10.788
    5        0.518   0.476   9.794  10.788
    6        0.518   0.476   9.794  10.788
    7        0.518   0.476   9.794  10.788
    8        0.518   0.476   9.794  10.788
    9        0.333   0.342   0.000   0.675
   10        0.333   0.342   0.000   0.675
   11        0.333   0.342   0.000   0.675
   12        0.333   0.342   0.000   0.675
   13        0.333   0.342   0.000   0.675
   14        0.333   0.342   0.000   0.675
   15        0.333   0.342   0.000   0.675
   16        0.333   0.342   0.000   0.675
   17        0.333   0.342   0.000   0.675
   18        0.333   0.342   0.000   0.675
   19        0.333   0.342   0.000   0.675
   20        0.333   0.342   0.000   0.675
   21        0.333   0.342   0.000   0.675
   22        0.333   0.342   0.000   0.675
   23        0.333   0.342   0.000   0.675
   24        0.333   0.342   0.000   0.675
   25        1.322   2.472   0.000   3.794
   26        1.322   2.472   0.000   3.794
   27        1.322   2.472   0.000   3.794
   28        1.322   2.472   0.000   3.794
   29        1.322   2.472   0.000   3.794
   30        1.322   2.472   0.000   3.794
   31        1.322   2.472   0.000   3.794
   32        1.322   2.472   0.000   3.794
   33        1.322   2.472   0.000   3.794
   34        1.322   2.472   0.000   3.794
   35        1.322   2.472   0.000   3.794
   36        1.322   2.472   0.000   3.794
   37        1.322   2.472   0.000   3.794
   38        1.322   2.472   0.000   3.794
   39        1.322   2.472   0.000   3.794
   40        1.322   2.472   0.000   3.794
   41        1.322   2.472   0.000   3.794
   42        1.322   2.472   0.000   3.794
   43        1.322   2.472   0.000   3.794
   44        1.322   2.472   0.000   3.794
   45        1.322   2.472   0.000   3.794
   46        1.322   2.472   0.000   3.794
   47        1.322   2.472   0.000   3.794
   48        1.322   2.472   0.000   3.794
   49        1.322   2.472   0.000   3.794
   50        1.322   2.472   0.000   3.794
   51        1.322   2.472   0.000   3.794
   52        1.322   2.472   0.000   3.794
   53        1.322   2.472   0.000   3.794
   54        1.322   2.472   0.000   3.794
   55        1.322   2.472   0.000   3.794
   56        1.322   2.472   0.000   3.794
tot         51.785  88.366  78.349 218.500

 BZINTS: Fermi energy:    4.423123;  336.000000 electrons
         Band energy:-0.277053E+03;  BLOECHL correction:   -0.000000