 vasp.6.3.2 27Jun22 (build Sep 20 2022 16:10:27) complex

 executed on             LinuxIFC date 2024.11.08  21:37:18

 INCAR:
   SYSTEM = PDOS-Calculation-SCF-run
   ISTART = 0
   ICHARG = 2
   ENCUT = 500.0
   ISMEAR = 0
   SIGMA = 0.05
   LREAL = .FALSE.
   PREC = Accurate
   EDIFF = 1E-07
   EDIFFG = -0.02
   NELM = 100
   ALGO = Normal
   IBRION = -1
   ISYM = 0
   LMAXMIX = 4
   NSW = 0
   LASPH = .TRUE
   NCORE = 9
   ISPIN = 1
   LWAVE = .FALSE.
   LCHARG = .TRUE.

 POTCAR:    PAW_PBE Zn 06Sep2000
 POTCAR:    PAW_PBE In_d 06Sep2000
 POTCAR:    PAW_PBE S 06Sep2000
 POTCAR:    PAW_PBE Zn 06Sep2000
   VRHFIN =Zn: d10 p2

   TITEL  = PAW_PBE Zn 06Sep2000
   POMASS =   65.390; ZVAL   =   12.000    mass and valenz
   ENMAX  =  276.723; ENMIN  =  207.542 eV

   TITEL  = PAW_PBE In_d 06Sep2000
   POMASS =  114.820; ZVAL   =   13.000    mass and valenz
   ENMAX  =  239.211; ENMIN  =  179.409 eV

   TITEL  = PAW_PBE S 06Sep2000
   POMASS =   32.066; ZVAL   =    6.000    mass and valenz
   ENMAX  =  258.689; ENMIN  =  194.016 eV

  PAW_PBE Zn 06Sep2000                  :
  PAW_PBE In_d 06Sep2000                :
  PAW_PBE S 06Sep2000                   :

 POSCAR: Primitive Cell
  positions in direct lattice
  velocities in cartesian coordinates
 exchange correlation table for  LEXCH =        8
   RHO(1)=    0.500       N(1)  =     2000
   RHO(2)=  100.500       N(2)  =     4000

 ion  position               nearest neighbor table
   1  0.392  0.392  0.392-   4 2.31   4 2.31   4 2.31   6 2.54
   2  0.162  0.162  0.162-   6 2.57   6 2.57   6 2.57   7 2.72   7 2.72   7 2.72
   3  0.937  0.937  0.937-   7 2.45   5 2.49   5 2.49   5 2.49
   4  0.044  0.044  0.044-   1 2.31   1 2.31   1 2.31
   5  0.300  0.300  0.300-   3 2.49   3 2.49   3 2.49
   6  0.461  0.461  0.461-   1 2.54   2 2.57   2 2.57   2 2.57
   7  0.870  0.870  0.870-   3 2.45   2 2.72   2 2.72   2 2.72

IMPORTANT INFORMATION: All symmetrisations will be switched off!
NOSYMM: (Re-)initialisation of all symmetry stuff for point group C_1.

                                     Primitive cell

  volume of cell :     160.5105

  direct lattice vectors                    reciprocal lattice vectors
     1.944688005  1.122766133 12.252165354     0.257110648  0.148442903  0.027206076
    -1.944688067  1.122766151 12.252165346    -0.257110647  0.148442900  0.027206075
    -0.000000014 -2.245532345 12.252165355    -0.000000001 -0.296885803  0.027206075

  length of vectors
    12.456242254 12.456242258 12.456242266     0.298129756  0.298129753  0.298129754

  position of ions in fractional coordinates (direct lattice)
     0.391750106  0.391750104  0.391750092
     0.161781926  0.161781931  0.161781971
     0.937134660  0.937134667  0.937134656
     0.043793497  0.043793498  0.043793499
     0.299593712  0.299593707  0.299593678
     0.460967032  0.460967029  0.460967008
     0.870379067  0.870379064  0.870379095

  ion indices of the primitive-cell ions
   primitive index   ion index
                 1           1
                 2           2
                 3           3
                 4           4
                 5           5
                 6           6
                 7           7

 KPOINTS: K-Spacing Value to Generate K-Mesh: 0.03

Automatic generation of k-mesh.
 Grid dimensions read from file:
 generate k-points for:   15   15   15

 Generating k-lattice:

  Cartesian coordinates                     Fractional coordinates (reciprocal lattice)
     0.017140710  0.009896194  0.001813738     0.066666667  0.000000000 -0.000000000
    -0.017140710  0.009896193  0.001813738    -0.000000000  0.066666667  0.000000000
    -0.000000000 -0.019792387  0.001813738    -0.000000000  0.000000000  0.066666667

  Length of vectors
     0.019875317  0.019875317  0.019875317

  Shift w.r.t. Gamma in fractional coordinates (k-lattice)
     0.000000000  0.000000000  0.000000000

 Subroutine IBZKPT returns following result:

 Found   1688 irreducible k-points:

 Following reciprocal coordinates:
            Coordinates               Weight
  0.000000  0.000000  0.000000      1.000000
  0.066667  0.000000  0.000000      2.000000
 -0.000000  0.066667  0.000000      2.000000
  0.000000  0.000000  0.066667      2.000000
  0.133333 -0.000000  0.000000      2.000000
  0.000000  0.133333  0.000000      2.000000
  0.000000 -0.000000  0.133333      2.000000
  0.200000 -0.000000 -0.000000      2.000000
  0.000000  0.200000 -0.000000      2.000000
  0.000000  0.000000  0.200000      2.000000
  0.266667 -0.000000 -0.000000      2.000000
  0.000000  0.266667 -0.000000      2.000000
  0.000000  0.000000  0.266667      2.000000
  0.333333  0.000000  0.000000      2.000000
  0.000000  0.333333  0.000000      2.000000
  0.000000 -0.000000  0.333333      2.000000
  0.400000 -0.000000  0.000000      2.000000
  0.000000  0.400000 -0.000000      2.000000
  0.000000  0.000000  0.400000      2.000000
  0.466667  0.000000 -0.000000      2.000000
 -0.000000  0.466667 -0.000000      2.000000
  0.000000 -0.000000  0.466667      2.000000
  0.066667  0.066667 -0.000000      2.000000
 -0.066667 -0.000000 -0.066667      2.000000
  0.000000  0.066667  0.066667      2.000000
  0.133333  0.066667  0.000000      2.000000
 -0.133333 -0.000000 -0.066667      2.000000
  0.000000  0.133333  0.066667      2.000000
 -0.066667 -0.133333 -0.000000      2.000000
  0.066667  0.000000  0.133333      2.000000
 -0.000000 -0.066667 -0.133333      2.000000
  0.200000  0.066667  0.000000      2.000000
 -0.200000  0.000000 -0.066667      2.000000
  0.000000  0.200000  0.066667      2.000000
 -0.066667 -0.200000 -0.000000      2.000000
  0.066667 -0.000000  0.200000      2.000000
 -0.000000 -0.066667 -0.200000      2.000000
  0.266667  0.066667 -0.000000      2.000000
 -0.266667  0.000000 -0.066667      2.000000
  0.000000  0.266667  0.066667      2.000000
 -0.066667 -0.266667  0.000000      2.000000
  0.066667 -0.000000  0.266667      2.000000
 -0.000000 -0.066667 -0.266667      2.000000
  0.333333  0.066667 -0.000000      2.000000
 -0.333333  0.000000 -0.066667      2.000000
 -0.000000  0.333333  0.066667      2.000000
 -0.066667 -0.333333 -0.000000      2.000000
  0.066667  0.000000  0.333333      2.000000
 -0.000000 -0.066667 -0.333333      2.000000
  0.400000  0.066667 -0.000000      2.000000
 -0.400000  0.000000 -0.066667      2.000000
 -0.000000  0.400000  0.066667      2.000000
 -0.066667 -0.400000 -0.000000      2.000000
  0.066667  0.000000  0.400000      2.000000
 -0.000000 -0.066667 -0.400000      2.000000
  0.466667  0.066667  0.000000      2.000000
 -0.466667  0.000000 -0.066667      2.000000
  0.000000  0.466667  0.066667      2.000000
 -0.066667 -0.466667 -0.000000      2.000000
  0.066667  0.000000  0.466667      2.000000
[...]
  0.466667  0.400000 -0.466667      2.000000
 -0.400000 -0.466667  0.466667      2.000000
 -0.400000  0.466667  0.400000      2.000000
  0.400000 -0.400000 -0.466667      2.000000
  0.400000 -0.400000  0.466667      2.000000
 -0.466667  0.400000 -0.400000      2.000000
  0.466667  0.400000 -0.400000      2.000000
 -0.400000 -0.466667  0.400000      2.000000
 -0.466667 -0.466667  0.400000      2.000000
  0.466667 -0.400000  0.466667      2.000000
  0.400000 -0.466667 -0.466667      2.000000
  0.466667  0.466667  0.466667      2.000000
 -0.466667  0.466667  0.466667      2.000000
  0.466667 -0.466667  0.466667      2.000000
  0.466667  0.466667 -0.466667      2.000000

 Following cartesian coordinates:
            Coordinates               Weight
  0.000000  0.000000  0.000000      1.000000
  0.017141  0.009896  0.001814      2.000000
 -0.017141  0.009896  0.001814      2.000000
 -0.000000 -0.019792  0.001814      2.000000
  0.034281  0.019792  0.003627      2.000000
 -0.034281  0.019792  0.003627      2.000000
 -0.000000 -0.039585  0.003627      2.000000
  0.051422  0.029689  0.005441      2.000000
 -0.051422  0.029689  0.005441      2.000000
 -0.000000 -0.059377  0.005441      2.000000
  0.068563  0.039585  0.007255      2.000000
 -0.068563  0.039585  0.007255      2.000000
 -0.000000 -0.079170  0.007255      2.000000
  0.085704  0.049481  0.009069      2.000000
 -0.085704  0.049481  0.009069      2.000000
 -0.000000 -0.098962  0.009069      2.000000
  0.102844  0.059377  0.010882      2.000000
 -0.102844  0.059377  0.010882      2.000000
 -0.000000 -0.118754  0.010882      2.000000
  0.119985  0.069273  0.012696      2.000000
 -0.119985  0.069273  0.012696      2.000000
 -0.000000 -0.138547  0.012696      2.000000
  0.000000  0.019792  0.003627      2.000000
 -0.017141  0.009896 -0.003627      2.000000
 -0.017141 -0.009896  0.003627      2.000000
  0.017141  0.029689  0.005441      2.000000
 -0.034281 -0.000000 -0.005441      2.000000
 -0.034281 -0.000000  0.005441      2.000000
  0.017141 -0.029689 -0.005441      2.000000
  0.017141 -0.029689  0.005441      2.000000
  0.017141  0.029689 -0.005441      2.000000
  0.034281  0.039585  0.007255      2.000000
 -0.051422 -0.009896 -0.007255      2.000000
 -0.051422  0.009896  0.007255      2.000000
  0.034281 -0.039585 -0.007255      2.000000
  0.017141 -0.049481  0.007255      2.000000
  0.017141  0.049481 -0.007255      2.000000
  0.051422  0.049481  0.009069      2.000000
 -0.068563 -0.019792 -0.009069      2.000000
 -0.068563  0.019792  0.009069      2.000000
  0.051422 -0.049481 -0.009069      2.000000
  0.017141 -0.069273  0.009069      2.000000
  0.017141  0.069273 -0.009069      2.000000
  0.068563  0.059377  0.010882      2.000000
 -0.085704 -0.029689 -0.010882      2.000000
 -0.085704  0.029689  0.010882      2.000000
  0.068563 -0.059377 -0.010882      2.000000
  0.017141 -0.089066  0.010882      2.000000
  0.017141  0.089066 -0.010882      2.000000
  0.085704  0.069273  0.012696      2.000000
 -0.102844 -0.039585 -0.012696      2.000000
 -0.102844  0.039585  0.012696      2.000000
  0.085704 -0.069273 -0.012696      2.000000
  0.017141 -0.108858  0.012696      2.000000
  0.017141  0.108858 -0.012696      2.000000
  0.102844  0.079170  0.014510      2.000000
 -0.119985 -0.049481 -0.014510      2.000000
 -0.119985  0.049481  0.014510      2.000000
  0.102844 -0.079170 -0.014510      2.000000
  0.017141 -0.128651  0.014510      2.000000
[...]
  0.017141  0.267197  0.010882      2.000000
  0.017141 -0.267197 -0.010882      2.000000
 -0.222829 -0.108858  0.012696      2.000000
  0.205689  0.138547 -0.012696      2.000000
  0.205689 -0.138547  0.012696      2.000000
 -0.222829  0.108858 -0.012696      2.000000
  0.017141  0.247405  0.012696      2.000000
  0.017141 -0.247405 -0.012696      2.000000
 -0.000000 -0.257301 -0.014510      2.000000
  0.222829 -0.128651  0.014510      2.000000
  0.222829  0.128651 -0.014510      2.000000
 -0.000000  0.000000  0.038089      2.000000
 -0.239970 -0.138547  0.012696      2.000000
  0.239970 -0.138547  0.012696      2.000000
  0.000000  0.277093  0.012696      2.000000

 SYSTEM =  PDOS-Calculation-SCF-run
 POSCAR =  Primitive Cell

 Startparameter for this run:
   NWRITE =      2    write-flag & timer
   PREC   = accura    normal or accurate (medium, high low for compatibility)
   ISTART =      0    job   : 0-new  1-cont  2-samecut
[...]
  -0.46666667  0.40000000 -0.40000000       0.001
   0.46666667  0.40000000 -0.40000000       0.001
  -0.40000000 -0.46666667  0.40000000       0.001
  -0.46666667 -0.46666667  0.40000000       0.001
   0.46666667 -0.40000000  0.46666667       0.001
   0.40000000 -0.46666667 -0.46666667       0.001
   0.46666667  0.46666667  0.46666667       0.001
  -0.46666667  0.46666667  0.46666667       0.001
   0.46666667 -0.46666667  0.46666667       0.001
   0.46666667  0.46666667 -0.46666667       0.001

 position of ions in fractional coordinates (direct lattice)
   0.39175011  0.39175010  0.39175009
   0.16178193  0.16178193  0.16178197
   0.93713466  0.93713467  0.93713466
   0.04379350  0.04379350  0.04379350
   0.29959371  0.29959371  0.29959368
   0.46096703  0.46096703  0.46096701
   0.87037907  0.87037906  0.87037910

 position of ions in cartesian coordinates  (Angst):
  -0.00000003  0.00000000 14.39936103
  -0.00000002 -0.00000010  5.94653734
  -0.00000008 -0.00000004 34.44578647
  -0.00000001 -0.00000001  1.60969554
  -0.00000001  0.00000005 11.01201461
  -0.00000003  0.00000002 16.94353255
  -0.00000006 -0.00000012 31.99208506

 k-point   1 :   0.0000 0.0000 0.0000  plane waves:    4047
 k-point   2 :   0.0667 0.0000 0.0000  plane waves:    4042
 k-point   3 :  -0.0000 0.0667 0.0000  plane waves:    4042
 k-point   4 :   0.0000 0.0000 0.0667  plane waves:    4042
 k-point   5 :   0.1333-0.0000 0.0000  plane waves:    4053
 k-point   6 :   0.0000 0.1333 0.0000  plane waves:    4053
 k-point   7 :   0.0000-0.0000 0.1333  plane waves:    4053
 k-point   8 :   0.2000-0.0000-0.0000  plane waves:    4060
 k-point   9 :   0.0000 0.2000-0.0000  plane waves:    4060
 k-point  10 :   0.0000 0.0000 0.2000  plane waves:    4060
 k-point  11 :   0.2667-0.0000-0.0000  plane waves:    4076
 k-point  12 :   0.0000 0.2667-0.0000  plane waves:    4076
 k-point  13 :   0.0000 0.0000 0.2667  plane waves:    4076
 k-point  14 :   0.3333 0.0000 0.0000  plane waves:    4065
 k-point  15 :   0.0000 0.3333 0.0000  plane waves:    4065
 k-point  16 :   0.0000-0.0000 0.3333  plane waves:    4065
 k-point  17 :   0.4000-0.0000 0.0000  plane waves:    4073
 k-point  18 :   0.0000 0.4000-0.0000  plane waves:    4073
 k-point  19 :   0.0000 0.0000 0.4000  plane waves:    4073
 k-point  20 :   0.4667 0.0000-0.0000  plane waves:    4094
 k-point  21 :  -0.0000 0.4667-0.0000  plane waves:    4094
 k-point  22 :   0.0000-0.0000 0.4667  plane waves:    4094
 k-point  23 :   0.0667 0.0667-0.0000  plane waves:    4046
 k-point  24 :  -0.0667-0.0000-0.0667  plane waves:    4046
 k-point  25 :   0.0000 0.0667 0.0667  plane waves:    4046
 k-point  26 :   0.1333 0.0667 0.0000  plane waves:    4045
 k-point  27 :  -0.1333-0.0000-0.0667  plane waves:    4045
 k-point  28 :   0.0000 0.1333 0.0667  plane waves:    4045
 k-point  29 :  -0.0667-0.1333-0.0000  plane waves:    4045
 k-point  30 :   0.0667 0.0000 0.1333  plane waves:    4045
 k-point  31 :  -0.0000-0.0667-0.1333  plane waves:    4045
 k-point  32 :   0.2000 0.0667 0.0000  plane waves:    4053
 k-point  33 :  -0.2000 0.0000-0.0667  plane waves:    4053
 k-point  34 :   0.0000 0.2000 0.0667  plane waves:    4053
 k-point  35 :  -0.0667-0.2000-0.0000  plane waves:    4053
 k-point  36 :   0.0667-0.0000 0.2000  plane waves:    4053
 k-point  37 :  -0.0000-0.0667-0.2000  plane waves:    4053
 k-point  38 :   0.2667 0.0667-0.0000  plane waves:    4065
 k-point  39 :  -0.2667 0.0000-0.0667  plane waves:    4065
 k-point  40 :   0.0000 0.2667 0.0667  plane waves:    4065
 k-point  41 :  -0.0667-0.2667 0.0000  plane waves:    4065
 k-point  42 :   0.0667-0.0000 0.2667  plane waves:    4065
 k-point  43 :  -0.0000-0.0667-0.2667  plane waves:    4065
 k-point  44 :   0.3333 0.0667-0.0000  plane waves:    4080
 k-point  45 :  -0.3333 0.0000-0.0667  plane waves:    4080
 k-point  46 :  -0.0000 0.3333 0.0667  plane waves:    4080
 k-point  47 :  -0.0667-0.3333-0.0000  plane waves:    4080
 k-point  48 :   0.0667 0.0000 0.3333  plane waves:    4080
 k-point  49 :  -0.0000-0.0667-0.3333  plane waves:    4080
 k-point  50 :   0.4000 0.0667-0.0000  plane waves:    4079
 k-point  51 :  -0.4000 0.0000-0.0667  plane waves:    4079
 k-point  52 :  -0.0000 0.4000 0.0667  plane waves:    4079
 k-point  53 :  -0.0667-0.4000-0.0000  plane waves:    4079
 k-point  54 :   0.0667 0.0000 0.4000  plane waves:    4079
 k-point  55 :  -0.0000-0.0667-0.4000  plane waves:    4079
 k-point  56 :   0.4667 0.0667 0.0000  plane waves:    4091
 k-point  57 :  -0.4667 0.0000-0.0667  plane waves:    4091
 k-point  58 :   0.0000 0.4667 0.0667  plane waves:    4091
 k-point  59 :  -0.0667-0.4667-0.0000  plane waves:    4091
 k-point  60 :   0.0667 0.0000 0.4667  plane waves:    4091
[...]
 k-point *** :   0.4667 0.4000-0.4667  plane waves:    4048
 k-point *** :  -0.4000-0.4667 0.4667  plane waves:    4048
 k-point *** :  -0.4000 0.4667 0.4000  plane waves:    4056
 k-point *** :   0.4000-0.4000-0.4667  plane waves:    4056
 k-point *** :   0.4000-0.4000 0.4667  plane waves:    4056
 k-point *** :  -0.4667 0.4000-0.4000  plane waves:    4056
 k-point *** :   0.4667 0.4000-0.4000  plane waves:    4056
 k-point *** :  -0.4000-0.4667 0.4000  plane waves:    4056
 k-point *** :  -0.4667-0.4667 0.4000  plane waves:    4047
 k-point *** :   0.4667-0.4000 0.4667  plane waves:    4047
 k-point *** :   0.4000-0.4667-0.4667  plane waves:    4047
 k-point *** :   0.4667 0.4667 0.4667  plane waves:    4052
 k-point *** :  -0.4667 0.4667 0.4667  plane waves:    4044
 k-point *** :   0.4667-0.4667 0.4667  plane waves:    4044
 k-point *** :   0.4667 0.4667-0.4667  plane waves:    4044

 maximum and minimum number of plane-waves per node :       481      407

 maximum number of plane-waves:      4107
 maximum index in each direction:
   IXMAX=   23   IYMAX=   23   IZMAX=   23
   IXMIN=  -23   IYMIN=  -23   IZMIN=  -23

 parallel 3D FFT for wavefunctions:
    minimum data exchange during FFTs selected (reduces bandwidth)
 parallel 3D FFT for charge:
    minimum data exchange during FFTs selected (reduces bandwidth)

 Broyden mixing: mesh for mixing (old mesh)
   NGX = 45   NGY = 45   NGZ = 45
  (NGX  =192   NGY  =192   NGZ  =192)
  gives a total of  91125 points

 initial charge density was supplied:
 charge density of overlapping atoms calculated
 number of electron      62.0000000 magnetization
 keeping initial charge density in first step

 Maximum index for augmentation-charges         8482 (set IRDMAX)

 First call to EWALD:  gamma=   0.326
 Maximum number of real-space cells 4x 4x 4
 Maximum number of reciprocal cells 6x 6x 6

--------------------------------------- Iteration      1(   1)  ---------------------------------------

 eigenvalue-minimisations  :135096
 total energy-change (2. order) : 0.5900346E+03  (-0.2745665E+04)
 number of electron      62.0000000 magnetization
 augmentation part       62.0000000 magnetization

 Free energy of the ion-electron system (eV)
  alpha Z        PSCENC =       144.36138454
  Ewald energy   TEWEN  =     -4033.89893700
  -Hartree energ DENC   =     -1943.49834457
  -exchange      EXHF   =         0.00000000
  -V(xc)+E(xc)   XCENC  =       189.59394860
  PAW double counting   =      5087.04612586    -5233.23548032
  entropy T*S    EENTRO =        -0.00209660
  eigenvalues    EBANDS =       369.89894848
  atomic energy  EATOM  =      6009.76902234
  Solvation  Ediel_sol  =         0.00000000
  free energy    TOTEN  =       590.03457133 eV

  energy without entropy =      590.03666793  energy(sigma->0) =      590.03561963

[...]

 eigenvalue-minimisations  :136120
 total energy-change (2. order) :-0.5302913E+03  (-0.5074629E+03)
 number of electron      62.0000000 magnetization
 augmentation part       62.0000000 magnetization

[...]

 Broyden mixing:
  rms(total) = 0.13253E+01    rms(broyden)= 0.13253E+01
  rms(prec ) = 0.14441E+01
  weight for this iteration     100.00

[...]

 eigenvalues of (default mixing * dielectric matrix)
  average eigenvalue GAMMA=   2.2071
  2.2071

[...]

 eigenvalue-minimisations  :194192
 total energy-change (2. order) : 0.3653097E-04  (-0.4008944E-04)
 number of electron      62.0000004 magnetization
 augmentation part       18.9097392 magnetization

[...]

 Broyden mixing:
  rms(total) = 0.39446E-03    rms(broyden)= 0.39446E-03
  rms(prec ) = 0.40121E-03
  weight for this iteration     100.00

 eigenvalues of (default mixing * dielectric matrix)
  average eigenvalue GAMMA=   1.5394
  3.2202  2.3826  2.3826  1.5278  1.5278  1.1721  1.1721  0.9721  0.9721  0.8018
  0.8018

[...]

--------------------------------------- Iteration      1(  17)  ---------------------------------------

 eigenvalue-minimisations  :139576
 total energy-change (2. order) :-0.1269746E-07  (-0.2263151E-07)
 number of electron      62.0000004 magnetization
 augmentation part       18.9092395 magnetization

 Free energy of the ion-electron system (eV)
  alpha Z        PSCENC =       144.36138454
  Ewald energy   TEWEN  =     -4033.89893700
  -Hartree energ DENC   =     -1931.19464914
  -exchange      EXHF   =         0.00000000
  -V(xc)+E(xc)   XCENC  =       190.73265183
  PAW double counting   =      8145.76111981    -8291.11231603
  entropy T*S    EENTRO =        -0.00000016
  eigenvalues    EBANDS =      -261.08281826
  atomic energy  EATOM  =      6009.76902234
  Solvation  Ediel_sol  =         0.00000000
  free energy    TOTEN  =       -26.66454207 eV

  energy without entropy =      -26.66454191  energy(sigma->0) =      -26.66454199

 average (electrostatic) potential at core
  the test charge radii are     0.9521  1.0774  0.9698
  (the norm of the test charge is              1.0000)
       1 -33.7296       2 -97.0398       3 -97.5274       4 -85.6453       5 -87.7951
       6 -87.0224       7 -87.2358

 E-fermi :   4.5615     XC(G=0):  -9.3846     alpha+bet :-10.0174

 Fermi energy:         4.5615492110

 k-point     1 :       0.0000    0.0000    0.0000
  band No.  band energies     occupation
      1     -11.0953      2.00000
      2     -10.8992      2.00000
      3     -10.8992      2.00000
      4     -10.7244      2.00000
      5     -10.7244      2.00000
      6     -10.3679      2.00000
      7     -10.3679      2.00000
      8     -10.3556      2.00000
      9     -10.2249      2.00000
     10     -10.2249      2.00000
     11      -9.8009      2.00000
     12      -9.2031      2.00000
     13      -8.2639      2.00000
     14      -7.4689      2.00000
     15      -2.1017      2.00000
     16      -1.6428      2.00000
     17      -1.6428      2.00000
     18      -1.4124      2.00000
     19      -1.2002      2.00000
     20      -1.2002      2.00000
     21       0.3359      2.00000
     22       1.3384      2.00000
     23       1.9637      2.00000
     24       1.9637      2.00000
     25       2.6181      2.00000
     26       2.6181      2.00000
     27       2.8929      2.00000
     28       2.8929      2.00000
     29       3.8102      2.00000
     30       4.4205      1.99993
     31       4.4205      1.99993
     32       4.6710      0.00195
     33       6.1830      0.00000
     34       7.0925      0.00000
     35       7.7835      0.00000
     36       8.8352      0.00000
     37       8.8352      0.00000
     38       8.9200      0.00000
     39       9.5783      0.00000
     40       9.5783      0.00000

[...]

 k-point  1688 :       0.4667    0.4667   -0.4667
  band No.  band energies     occupation
      1     -11.1008      2.00000
      2     -10.9112      2.00000
      3     -10.8951      2.00000
      4     -10.7285      2.00000
      5     -10.7241      2.00000
      6     -10.3967      2.00000
      7     -10.3643      2.00000
      8     -10.3387      2.00000
      9     -10.2289      2.00000
     10     -10.2244      2.00000
     11      -9.7387      2.00000
     12      -9.1941      2.00000
     13      -8.1775      2.00000
     14      -7.4769      2.00000
     15      -2.1290      2.00000
     16      -1.6427      2.00000
     17      -1.6334      2.00000
     18      -1.2111      2.00000
     19      -1.2004      2.00000
     20      -1.1608      2.00000
     21      -0.1920      2.00000
     22       1.6741      2.00000
     23       1.9053      2.00000
     24       2.0177      2.00000
     25       2.2744      2.00000
     26       2.5086      2.00000
     27       2.7416      2.00000
     28       2.9358      2.00000
     29       3.3120      2.00000
     30       4.1669      2.00000
     31       4.3577      2.00000
     32       5.4663      0.00000
     33       6.0986      0.00000
     34       7.3789      0.00000
     35       7.7944      0.00000
     36       8.5521      0.00000
     37       8.9344      0.00000
     38       9.0398      0.00000
     39       9.6001      0.00000
     40       9.6415      0.00000

 soft charge-density along one line, spin component           1
         0         1         2         3         4         5         6         7         8         9
 total charge-density along one line

------------------------ aborting loop because EDIFF is reached ----------------------------------------

  FORCE on cell =-STRESS in cart. coord.  units (eV):
  Direction    XX          YY          ZZ          XY          YZ          ZX
  Alpha Z   144.36138   144.36138   144.36138
  Ewald   -1174.00427 -1174.00437 -1685.89483     0.00002     0.00001    -0.00000
  Hartree   766.94732   766.94727   397.30257     0.00001     0.00001    -0.00000
  E(xc)    -289.41542  -289.41542  -289.58287     0.00000     0.00000     0.00000
  Local    -663.01569  -663.01554   212.75685    -0.00002    -0.00002     0.00000
  n-local   333.88264   333.88263   331.09146     0.00000     0.00000     0.00000
  augment   290.81454   290.81455   290.92797    -0.00000     0.00000     0.00000
  Kinetic   592.38028   592.38029   600.91881    -0.00000    -0.00000    -0.00000
  Fock        0.00000     0.00000     0.00000     0.00000     0.00000     0.00000
  Total       1.95079     1.95079     1.88133     0.00000     0.00000    -0.00000
  in kB      19.47230    19.47228    18.77903     0.00000     0.00000    -0.00000

 VOLUME and BASIS-vectors are now :
  energy-cutoff  :      500.00
  volume of cell :      160.51
      direct lattice vectors                 reciprocal lattice vectors
     1.944688005  1.122766133 12.252165354     0.257110648  0.148442903  0.027206076
    -1.944688067  1.122766151 12.252165346    -0.257110647  0.148442900  0.027206075
    -0.000000014 -2.245532345 12.252165355    -0.000000001 -0.296885803  0.027206075

  length of vectors
    12.456242254 12.456242258 12.456242266     0.298129756  0.298129753  0.298129754

 FORCES acting on ions
    electron-ion (+dipol)            ewald-force                    non-local-force                 convergence-correction
   0.505E-05 0.646E-05 0.102E+03   -.435E-05 -.680E-05 -.104E+03   0.680E-06 -.248E-07 0.255E+01   -.145E-05 0.213E-06 0.103E-02
   -.300E-05 -.166E-04 -.523E+02   0.302E-05 0.154E-04 0.496E+02   -.488E-07 0.176E-05 0.277E+01   0.294E-06 0.107E-06 0.136E-04
   -.391E-05 -.845E-05 -.617E+02   0.425E-05 0.847E-05 0.609E+02   0.428E-06 0.543E-06 0.793E+00   -.455E-06 -.371E-06 -.176E-02
   -.523E-05 -.504E-05 0.124E+03   0.480E-05 0.591E-05 -.127E+03   0.442E-06 -.549E-06 0.331E+01   0.139E-06 0.135E-06 0.453E-03
   0.560E-05 0.562E-05 -.115E+03   -.527E-05 -.587E-05 0.122E+03   -.538E-06 0.340E-08 -.671E+01   0.477E-07 -.688E-07 -.447E-03
   0.281E-05 0.130E-04 0.695E+02   -.321E-05 -.139E-04 -.716E+02   0.302E-06 0.133E-06 0.218E+01   -.983E-09 0.928E-07 0.335E-03
   -.490E-06 0.249E-05 -.739E+02   0.756E-06 -.313E-05 0.708E+02   -.200E-06 0.632E-06 0.303E+01   -.113E-06 -.700E-08 -.178E-03
   0.839E-06 -.253E-05 -.793E+01   0.215E-14 0.193E-13 -.284E-13   0.107E-05 0.250E-05 0.794E+01   -.154E-05 0.101E-06 -.559E-03

 POSITION                                       TOTAL-FORCE (eV/Angst)
     -0.00000      0.00000     14.39936        -0.000000     -0.000000     -0.046913
     -0.00000     -0.00000      5.94654         0.000000      0.000001      0.096715
     -0.00000     -0.00000     34.44579         0.000000      0.000000     -0.028586
     -0.00000     -0.00000      1.60970         0.000000      0.000000     -0.033697
     -0.00000      0.00000     11.01201        -0.000000     -0.000000      0.048261
     -0.00000      0.00000     16.94353        -0.000000     -0.000001      0.024926
     -0.00000     -0.00000     31.99209        -0.000000     -0.000000     -0.060706
    total drift:                                0.000000      0.000000      0.000040

  FREE ENERGIE OF THE ION-ELECTRON SYSTEM (eV)
  free  energy   TOTEN  =       -26.66454207 eV

  energy  without entropy=      -26.66454191  energy(sigma->0) =      -26.66454199